#Generated by Multiwfn
&GLOBAL
  PROJECT graphite_perfect_300K_0bar_PBE01
  PRINT_LEVEL LOW
  RUN_TYPE MD
&END GLOBAL

&FORCE_EVAL
  METHOD Quickstep
  &SUBSYS
    &CELL
      A    24.67500000     0.00000000     0.00000000
      B   -12.34122944    21.36702321     0.00000000
      C     0.00000000     0.00000000    13.63200000
      PERIODIC XYZ #Direction(s) of applied PBC (geometry aspect)
    &END CELL
    &COORD
      C           0.00000000    0.00000000    1.70400000
      C           0.00000000    0.00000000    5.11200000
      C           0.00000005    1.42399992    1.70400000
      C           1.23400005    0.71200007    5.11200000
      C           2.46700008    0.00000000    1.70400000
      C           2.46700008    0.00000000    5.11200000
      C           2.46700014    1.42399992    1.70400000
      C           3.70099988    0.71200007    5.11200000
      C          -1.23399999    2.13699996    1.70400000
      C          -1.23399999    2.13699996    5.11200000
      C          -1.23400006    3.56100010    1.70400000
      C           0.00000005    2.84900003    5.11200000
      C           1.23399992    2.13699996    1.70400000
      C           1.23399992    2.13699996    5.11200000
      C           1.23300002    3.56100010    1.70400000
      C           2.46699989    2.84900003    5.11200000
      C           0.00000000    0.00000000    8.52000000
      C           0.00000000    0.00000000   11.92800000
      C           0.00000005    1.42399992    8.52000000
      C           1.23400005    0.71200007   11.92800000
      C           2.46700008    0.00000000    8.52000000
      C           2.46700008    0.00000000   11.92800000
      C           2.46700014    1.42399992    8.52000000
      C           3.70099988    0.71200007   11.92800000
      C          -1.23399999    2.13699996    8.52000000
      C          -1.23399999    2.13699996   11.92800000
      C          -1.23400006    3.56100010    8.52000000
      C           0.00000005    2.84900003   11.92800000
      C           1.23399992    2.13699996    8.52000000
      C           1.23399992    2.13699996   11.92800000
      C           1.23300002    3.56100010    8.52000000
      C           2.46699989    2.84900003   11.92800000
      C          -2.46800005    4.27299995    1.70400000
      C          -2.46799998    4.27399993    5.11200000
      C          -2.46800005    5.69800006    1.70400000
      C          -1.23399994    4.98599999    5.11200000
      C           0.00000011    4.27299995    1.70400000
      C          -0.00000007    4.27399993    5.11200000
      C          -0.00099997    5.69800006    1.70400000
      C           1.23299990    4.98599999    5.11200000
      C          -3.70200005    6.40999991    1.70400000
      C          -3.70200005    6.40999991    5.11200000
      C          -3.70200004    7.83500002    1.70400000
      C          -2.46799993    7.12299996    5.11200000
      C          -1.23399988    6.40999991    1.70400000
      C          -1.23399988    6.40999991    5.11200000
      C          -1.23499996    7.83500002    1.70400000
      C          -0.00100009    7.12299996    5.11200000
      C          -2.46800005    4.27299995    8.52000000
      C          -2.46799998    4.27399993   11.92800000
      C          -2.46800005    5.69800006    8.52000000
      C          -1.23399994    4.98599999   11.92800000
      C           0.00000011    4.27299995    8.52000000
      C          -0.00000007    4.27399993   11.92800000
      C          -0.00099997    5.69800006    8.52000000
      C           1.23299990    4.98599999   11.92800000
      C          -3.70200005    6.40999991    8.52000000
      C          -3.70200005    6.40999991   11.92800000
      C          -3.70200004    7.83500002    8.52000000
      C          -2.46799993    7.12299996   11.92800000
      C          -1.23399988    6.40999991    8.52000000
      C          -1.23399988    6.40999991   11.92800000
      C          -1.23499996    7.83500002    8.52000000
      C          -0.00100009    7.12299996   11.92800000
      C          -4.93600016    8.54700009    1.70400000
      C          -4.93600016    8.54700009    5.11200000
      C          -4.93600003    9.97199999    1.70400000
      C          -3.70199992    9.25999992    5.11200000
      C          -2.46800000    8.54700009    1.70400000
      C          -2.46800000    8.54700009    5.11200000
      C          -2.46799987    9.97199999    1.70400000
      C          -1.23499983    9.25999992    5.11200000
      C          -6.17000015   10.68400006    1.70400000
      C          -6.17000015   10.68400006    5.11200000
      C          -6.17000010   12.10799998    1.70400000
      C          -4.93599998   11.39599991    5.11200000
      C          -3.70199999   10.68400006    1.70400000
      C          -3.70199999   10.68400006    5.11200000
      C          -3.70199994   12.10799998    1.70400000
      C          -2.46899990   11.39599991    5.11200000
      C          -4.93600016    8.54700009    8.52000000
      C          -4.93600016    8.54700009   11.92800000
      C          -4.93600003    9.97199999    8.52000000
      C          -3.70199992    9.25999992   11.92800000
      C          -2.46800000    8.54700009    8.52000000
      C          -2.46800000    8.54700009   11.92800000
      C          -2.46799987    9.97199999    8.52000000
      C          -1.23499983    9.25999992   11.92800000
      C          -6.17000015   10.68400006    8.52000000
      C          -6.17000015   10.68400006   11.92800000
      C          -6.17000010   12.10799998    8.52000000
      C          -4.93599998   11.39599991   11.92800000
      C          -3.70199999   10.68400006    8.52000000
      C          -3.70199999   10.68400006   11.92800000
      C          -3.70199994   12.10799998    8.52000000
      C          -2.46899990   11.39599991   11.92800000
      C          -7.40399990   12.82100002    1.70400000
      C          -7.40399990   12.82100002    5.11200000
      C          -7.40400009   14.24499994    1.70400000
      C          -6.17000010   13.53300009    5.11200000
      C          -4.93599998   12.82100002    1.70400000
      C          -4.93599998   12.82100002    5.11200000
      C          -4.93599993   14.24499994    1.70400000
      C          -3.70300001   13.53300009    5.11200000
      C          -8.63799996   14.95700001    1.70400000
      C          -8.63799996   14.95700001    5.11200000
      C          -8.63799983   16.38199990    1.70400000
      C          -7.40400009   15.67000005    5.11200000
      C          -6.17000004   14.95700001    1.70400000
      C          -6.17000004   14.95700001    5.11200000
      C          -6.16999992   16.38199990    1.70400000
      C          -4.93700000   15.67000005    5.11200000
      C          -7.40399990   12.82100002    8.52000000
      C          -7.40399990   12.82100002   11.92800000
      C          -7.40400009   14.24499994    8.52000000
      C          -6.17000010   13.53300009   11.92800000
      C          -4.93599998   12.82100002    8.52000000
      C          -4.93599998   12.82100002   11.92800000
      C          -4.93599993   14.24499994    8.52000000
      C          -3.70300001   13.53300009   11.92800000
      C          -8.63799996   14.95700001    8.52000000
      C          -8.63799996   14.95700001   11.92800000
      C          -8.63799983   16.38199990    8.52000000
      C          -7.40400009   15.67000005   11.92800000
      C          -6.17000004   14.95700001    8.52000000
      C          -6.17000004   14.95700001   11.92800000
      C          -6.16999992   16.38199990    8.52000000
      C          -4.93700000   15.67000005   11.92800000
      C          -9.87199995   17.09399997    1.70400000
      C          -9.87199995   17.09399997    5.11200000
      C          -9.87199995   18.51900008    1.70400000
      C          -8.63799990   17.80600004    5.11200000
      C          -7.40400003   17.09399997    1.70400000
      C          -7.40400003   17.09399997    5.11200000
      C          -7.40400003   18.51900008    1.70400000
      C          -6.16999999   17.80600004    5.11200000
      C         -11.10599994   19.23099993    1.70400000
      C         -11.10599994   19.23099993    5.11200000
      C         -11.10600001   20.65500007    1.70400000
      C          -9.87199989   19.94300000    5.11200000
      C          -8.63800003   19.23099993    1.70400000
      C          -8.63800003   19.23099993    5.11200000
      C          -8.63800010   20.65500007    1.70400000
      C          -7.40399998   19.94300000    5.11200000
      C          -9.87199995   17.09399997    8.52000000
      C          -9.87199995   17.09399997   11.92800000
      C          -9.87199995   18.51900008    8.52000000
      C          -8.63799990   17.80600004   11.92800000
      C          -7.40400003   17.09399997    8.52000000
      C          -7.40400003   17.09399997   11.92800000
      C          -7.40400003   18.51900008    8.52000000
      C          -6.16999999   17.80600004   11.92800000
      C         -11.10599994   19.23099993    8.52000000
      C         -11.10599994   19.23099993   11.92800000
      C         -11.10600001   20.65500007    8.52000000
      C          -9.87199989   19.94300000   11.92800000
      C          -8.63800003   19.23099993    8.52000000
      C          -8.63800003   19.23099993   11.92800000
      C          -8.63800010   20.65500007    8.52000000
      C          -7.40399998   19.94300000   11.92800000
      C           4.93500000    0.00000000    1.70400000
      C           4.93500000    0.00000000    5.11200000
      C           4.93500005    1.42399992    1.70400000
      C           6.16900005    0.71200007    5.11200000
      C           7.40200008    0.00000000    1.70400000
      C           7.40200008    0.00000000    5.11200000
      C           7.40200014    1.42399992    1.70400000
      C           8.63599988    0.71200007    5.11200000
      C           3.70100001    2.13699996    1.70400000
      C           3.70100001    2.13699996    5.11200000
      C           3.70099994    3.56100010    1.70400000
      C           4.93500005    2.84900003    5.11200000
      C           6.16800009    2.13699996    1.70400000
      C           6.16800009    2.13699996    5.11200000
      C           6.16800002    3.56100010    1.70400000
      C           7.40199989    2.84900003    5.11200000
      C           4.93500000    0.00000000    8.52000000
      C           4.93500000    0.00000000   11.92800000
      C           4.93500005    1.42399992    8.52000000
      C           6.16900005    0.71200007   11.92800000
      C           7.40200008    0.00000000    8.52000000
      C           7.40200008    0.00000000   11.92800000
      C           7.40200014    1.42399992    8.52000000
      C           8.63599988    0.71200007   11.92800000
      C           3.70100001    2.13699996    8.52000000
      C           3.70100001    2.13699996   11.92800000
      C           3.70099994    3.56100010    8.52000000
      C           4.93500005    2.84900003   11.92800000
      C           6.16800009    2.13699996    8.52000000
      C           6.16800009    2.13699996   11.92800000
      C           6.16800002    3.56100010    8.52000000
      C           7.40199989    2.84900003   11.92800000
      C           2.46699995    4.27299995    1.70400000
      C           2.46700002    4.27399993    5.11200000
      C           2.46699995    5.69800006    1.70400000
      C           3.70100006    4.98599999    5.11200000
      C           4.93500011    4.27299995    1.70400000
      C           4.93400010    4.27399993    5.11200000
      C           4.93400003    5.69800006    1.70400000
      C           6.16799990    4.98599999    5.11200000
      C           1.23299995    6.40999991    1.70400000
      C           1.23299995    6.40999991    5.11200000
      C           1.23299996    7.83500002    1.70400000
      C           2.46700007    7.12299996    5.11200000
      C           3.70100012    6.40999991    1.70400000
      C           3.70100012    6.40999991    5.11200000
      C           3.70000004    7.83500002    1.70400000
      C           4.93399991    7.12299996    5.11200000
      C           2.46699995    4.27299995    8.52000000
      C           2.46700002    4.27399993   11.92800000
      C           2.46699995    5.69800006    8.52000000
      C           3.70100006    4.98599999   11.92800000
      C           4.93500011    4.27299995    8.52000000
      C           4.93400010    4.27399993   11.92800000
      C           4.93400003    5.69800006    8.52000000
      C           6.16799990    4.98599999   11.92800000
      C           1.23299995    6.40999991    8.52000000
      C           1.23299995    6.40999991   11.92800000
      C           1.23299996    7.83500002    8.52000000
      C           2.46700007    7.12299996   11.92800000
      C           3.70100012    6.40999991    8.52000000
      C           3.70100012    6.40999991   11.92800000
      C           3.70000004    7.83500002    8.52000000
      C           4.93399991    7.12299996   11.92800000
      C          -0.00100016    8.54700009    1.70400000
      C          -0.00100016    8.54700009    5.11200000
      C          -0.00100003    9.97199999    1.70400000
      C           1.23300008    9.25999992    5.11200000
      C           2.46700000    8.54700009    1.70400000
      C           2.46700000    8.54700009    5.11200000
      C           2.46600005    9.97199999    1.70400000
      C           3.70000017    9.25999992    5.11200000
      C          -1.23500015   10.68400006    1.70400000
      C          -1.23500015   10.68400006    5.11200000
      C          -1.23500010   12.10799998    1.70400000
      C          -0.00099998   11.39599991    5.11200000
      C           1.23300001   10.68400006    1.70400000
      C           1.23300001   10.68400006    5.11200000
      C           1.23199999   12.10799998    1.70400000
      C           2.46600010   11.39599991    5.11200000
      C          -0.00100016    8.54700009    8.52000000
      C          -0.00100016    8.54700009   11.92800000
      C          -0.00100003    9.97199999    8.52000000
      C           1.23300008    9.25999992   11.92800000
      C           2.46700000    8.54700009    8.52000000
      C           2.46700000    8.54700009   11.92800000
      C           2.46600005    9.97199999    8.52000000
      C           3.70000017    9.25999992   11.92800000
      C          -1.23500015   10.68400006    8.52000000
      C          -1.23500015   10.68400006   11.92800000
      C          -1.23500010   12.10799998    8.52000000
      C          -0.00099998   11.39599991   11.92800000
      C           1.23300001   10.68400006    8.52000000
      C           1.23300001   10.68400006   11.92800000
      C           1.23199999   12.10799998    8.52000000
      C           2.46600010   11.39599991   11.92800000
      C          -2.46899990   12.82100002    1.70400000
      C          -2.46899990   12.82100002    5.11200000
      C          -2.46900009   14.24499994    1.70400000
      C          -1.23500010   13.53300009    5.11200000
      C          -0.00099998   12.82100002    1.70400000
      C          -0.00099998   12.82100002    5.11200000
      C          -0.00099993   14.24499994    1.70400000
      C           1.23199999   13.53300009    5.11200000
      C          -3.70299996   14.95700001    1.70400000
      C          -3.70299996   14.95700001    5.11200000
      C          -3.70299983   16.38199990    1.70400000
      C          -2.46900009   15.67000005    5.11200000
      C          -1.23500004   14.95700001    1.70400000
      C          -1.23500004   14.95700001    5.11200000
      C          -1.23499992   16.38199990    1.70400000
      C          -0.00200000   15.67000005    5.11200000
      C          -2.46899990   12.82100002    8.52000000
      C          -2.46899990   12.82100002   11.92800000
      C          -2.46900009   14.24499994    8.52000000
      C          -1.23500010   13.53300009   11.92800000
      C          -0.00099998   12.82100002    8.52000000
      C          -0.00099998   12.82100002   11.92800000
      C          -0.00099993   14.24499994    8.52000000
      C           1.23199999   13.53300009   11.92800000
      C          -3.70299996   14.95700001    8.52000000
      C          -3.70299996   14.95700001   11.92800000
      C          -3.70299983   16.38199990    8.52000000
      C          -2.46900009   15.67000005   11.92800000
      C          -1.23500004   14.95700001    8.52000000
      C          -1.23500004   14.95700001   11.92800000
      C          -1.23499992   16.38199990    8.52000000
      C          -0.00200000   15.67000005   11.92800000
      C          -4.93699995   17.09399997    1.70400000
      C          -4.93699995   17.09399997    5.11200000
      C          -4.93699995   18.51900008    1.70400000
      C          -3.70299990   17.80600004    5.11200000
      C          -2.46900003   17.09399997    1.70400000
      C          -2.46900003   17.09399997    5.11200000
      C          -2.46900003   18.51900008    1.70400000
      C          -1.23600007   17.80600004    5.11200000
      C          -6.17099994   19.23099993    1.70400000
      C          -6.17099994   19.23099993    5.11200000
      C          -6.17100001   20.65500007    1.70400000
      C          -4.93699989   19.94300000    5.11200000
      C          -3.70300003   19.23099993    1.70400000
      C          -3.70300003   19.23099993    5.11200000
      C          -3.70300010   20.65500007    1.70400000
      C          -2.46899998   19.94300000    5.11200000
      C          -4.93699995   17.09399997    8.52000000
      C          -4.93699995   17.09399997   11.92800000
      C          -4.93699995   18.51900008    8.52000000
      C          -3.70299990   17.80600004   11.92800000
      C          -2.46900003   17.09399997    8.52000000
      C          -2.46900003   17.09399997   11.92800000
      C          -2.46900003   18.51900008    8.52000000
      C          -1.23600007   17.80600004   11.92800000
      C          -6.17099994   19.23099993    8.52000000
      C          -6.17099994   19.23099993   11.92800000
      C          -6.17100001   20.65500007    8.52000000
      C          -4.93699989   19.94300000   11.92800000
      C          -3.70300003   19.23099993    8.52000000
      C          -3.70300003   19.23099993   11.92800000
      C          -3.70300010   20.65500007    8.52000000
      C          -2.46899998   19.94300000   11.92800000
      C           9.87000000    0.00000000    1.70400000
      C           9.87000000    0.00000000    5.11200000
      C           9.87000005    1.42399992    1.70400000
      C          11.10400005    0.71200007    5.11200000
      C          12.33700008    0.00000000    1.70400000
      C          12.33700008    0.00000000    5.11200000
      C          12.33700014    1.42399992    1.70400000
      C          13.57099988    0.71200007    5.11200000
      C           8.63600001    2.13699996    1.70400000
      C           8.63600001    2.13699996    5.11200000
      C           8.63599994    3.56100010    1.70400000
      C           9.87000005    2.84900003    5.11200000
      C          11.10300009    2.13699996    1.70400000
      C          11.10300009    2.13699996    5.11200000
      C          11.10300002    3.56100010    1.70400000
      C          12.33699989    2.84900003    5.11200000
      C           9.87000000    0.00000000    8.52000000
      C           9.87000000    0.00000000   11.92800000
      C           9.87000005    1.42399992    8.52000000
      C          11.10400005    0.71200007   11.92800000
      C          12.33700008    0.00000000    8.52000000
      C          12.33700008    0.00000000   11.92800000
      C          12.33700014    1.42399992    8.52000000
      C          13.57099988    0.71200007   11.92800000
      C           8.63600001    2.13699996    8.52000000
      C           8.63600001    2.13699996   11.92800000
      C           8.63599994    3.56100010    8.52000000
      C           9.87000005    2.84900003   11.92800000
      C          11.10300009    2.13699996    8.52000000
      C          11.10300009    2.13699996   11.92800000
      C          11.10300002    3.56100010    8.52000000
      C          12.33699989    2.84900003   11.92800000
      C           7.40199995    4.27299995    1.70400000
      C           7.40200002    4.27399993    5.11200000
      C           7.40199995    5.69800006    1.70400000
      C           8.63600006    4.98599999    5.11200000
      C           9.86900003    4.27299995    1.70400000
      C           9.86900010    4.27399993    5.11200000
      C           9.86900003    5.69800006    1.70400000
      C          11.10299990    4.98599999    5.11200000
      C           6.16799995    6.40999991    1.70400000
      C           6.16799995    6.40999991    5.11200000
      C           6.16799996    7.83500002    1.70400000
      C           7.40200007    7.12299996    5.11200000
      C           8.63600012    6.40999991    1.70400000
      C           8.63500004    6.40999991    5.11200000
      C           8.63500004    7.83500002    1.70400000
      C           9.86899991    7.12299996    5.11200000
      C           7.40199995    4.27299995    8.52000000
      C           7.40200002    4.27399993   11.92800000
      C           7.40199995    5.69800006    8.52000000
      C           8.63600006    4.98599999   11.92800000
      C           9.86900003    4.27299995    8.52000000
      C           9.86900010    4.27399993   11.92800000
      C           9.86900003    5.69800006    8.52000000
      C          11.10299990    4.98599999   11.92800000
      C           6.16799995    6.40999991    8.52000000
      C           6.16799995    6.40999991   11.92800000
      C           6.16799996    7.83500002    8.52000000
      C           7.40200007    7.12299996   11.92800000
      C           8.63600012    6.40999991    8.52000000
      C           8.63500004    6.40999991   11.92800000
      C           8.63500004    7.83500002    8.52000000
      C           9.86899991    7.12299996   11.92800000
      C           4.93399984    8.54700009    1.70400000
      C           4.93399984    8.54700009    5.11200000
      C           4.93399997    9.97199999    1.70400000
      C           6.16800008    9.25999992    5.11200000
      C           7.40200000    8.54700009    1.70400000
      C           7.40200000    8.54700009    5.11200000
      C           7.40100005    9.97199999    1.70400000
      C           8.63500017    9.25999992    5.11200000
      C           3.69999985   10.68400006    1.70400000
      C           3.69999985   10.68400006    5.11200000
      C           3.69999990   12.10799998    1.70400000
      C           4.93400002   11.39599991    5.11200000
      C           6.16800001   10.68400006    1.70400000
      C           6.16800001   10.68400006    5.11200000
      C           6.16699999   12.10799998    1.70400000
      C           7.40100010   11.39599991    5.11200000
      C           4.93399984    8.54700009    8.52000000
      C           4.93399984    8.54700009   11.92800000
      C           4.93399997    9.97199999    8.52000000
      C           6.16800008    9.25999992   11.92800000
      C           7.40200000    8.54700009    8.52000000
      C           7.40200000    8.54700009   11.92800000
      C           7.40100005    9.97199999    8.52000000
      C           8.63500017    9.25999992   11.92800000
      C           3.69999985   10.68400006    8.52000000
      C           3.69999985   10.68400006   11.92800000
      C           3.69999990   12.10799998    8.52000000
      C           4.93400002   11.39599991   11.92800000
      C           6.16800001   10.68400006    8.52000000
      C           6.16800001   10.68400006   11.92800000
      C           6.16699999   12.10799998    8.52000000
      C           7.40100010   11.39599991   11.92800000
      C           2.46600010   12.82100002    1.70400000
      C           2.46600010   12.82100002    5.11200000
      C           2.46599991   14.24499994    1.70400000
      C           3.69999990   13.53300009    5.11200000
      C           4.93400002   12.82100002    1.70400000
      C           4.93400002   12.82100002    5.11200000
      C           4.93300000   14.24499994    1.70400000
      C           6.16699999   13.53300009    5.11200000
      C           1.23200004   14.95700001    1.70400000
      C           1.23200004   14.95700001    5.11200000
      C           1.23200017   16.38199990    1.70400000
      C           2.46599991   15.67000005    5.11200000
      C           3.69999996   14.95700001    1.70400000
      C           3.69999996   14.95700001    5.11200000
      C           3.70000008   16.38199990    1.70400000
      C           4.93300000   15.67000005    5.11200000
      C           2.46600010   12.82100002    8.52000000
      C           2.46600010   12.82100002   11.92800000
      C           2.46599991   14.24499994    8.52000000
      C           3.69999990   13.53300009   11.92800000
      C           4.93400002   12.82100002    8.52000000
      C           4.93400002   12.82100002   11.92800000
      C           4.93300000   14.24499994    8.52000000
      C           6.16699999   13.53300009   11.92800000
      C           1.23200004   14.95700001    8.52000000
      C           1.23200004   14.95700001   11.92800000
      C           1.23200017   16.38199990    8.52000000
      C           2.46599991   15.67000005   11.92800000
      C           3.69999996   14.95700001    8.52000000
      C           3.69999996   14.95700001   11.92800000
      C           3.70000008   16.38199990    8.52000000
      C           4.93300000   15.67000005   11.92800000
      C          -0.00199995   17.09399997    1.70400000
      C          -0.00199995   17.09399997    5.11200000
      C          -0.00199995   18.51900008    1.70400000
      C           1.23200010   17.80600004    5.11200000
      C           2.46599997   17.09399997    1.70400000
      C           2.46599997   17.09399997    5.11200000
      C           2.46599997   18.51900008    1.70400000
      C           3.69899993   17.80600004    5.11200000
      C          -1.23599994   19.23099993    1.70400000
      C          -1.23599994   19.23099993    5.11200000
      C          -1.23600001   20.65500007    1.70400000
      C          -0.00199989   19.94300000    5.11200000
      C           1.23199997   19.23099993    1.70400000
      C           1.23199997   19.23099993    5.11200000
      C           1.23199990   20.65500007    1.70400000
      C           2.46499994   19.94300000    5.11200000
      C          -0.00199995   17.09399997    8.52000000
      C          -0.00199995   17.09399997   11.92800000
      C          -0.00199995   18.51900008    8.52000000
      C           1.23200010   17.80600004   11.92800000
      C           2.46599997   17.09399997    8.52000000
      C           2.46599997   17.09399997   11.92800000
      C           2.46599997   18.51900008    8.52000000
      C           3.69899993   17.80600004   11.92800000
      C          -1.23599994   19.23099993    8.52000000
      C          -1.23599994   19.23099993   11.92800000
      C          -1.23600001   20.65500007    8.52000000
      C          -0.00199989   19.94300000   11.92800000
      C           1.23199997   19.23099993    8.52000000
      C           1.23199997   19.23099993   11.92800000
      C           1.23199990   20.65500007    8.52000000
      C           2.46499994   19.94300000   11.92800000
      C          14.80500000    0.00000000    1.70400000
      C          14.80500000    0.00000000    5.11200000
      C          14.80500005    1.42399992    1.70400000
      C          16.03799997    0.71200007    5.11200000
      C          17.27200008    0.00000000    1.70400000
      C          17.27200008    0.00000000    5.11200000
      C          17.27200014    1.42399992    1.70400000
      C          18.50599988    0.71200007    5.11200000
      C          13.57100001    2.13699996    1.70400000
      C          13.57100001    2.13699996    5.11200000
      C          13.57099994    3.56100010    1.70400000
      C          14.80500005    2.84900003    5.11200000
      C          16.03800009    2.13699996    1.70400000
      C          16.03800009    2.13699996    5.11200000
      C          16.03800002    3.56100010    1.70400000
      C          17.27199989    2.84900003    5.11200000
      C          14.80500000    0.00000000    8.52000000
      C          14.80500000    0.00000000   11.92800000
      C          14.80500005    1.42399992    8.52000000
      C          16.03799997    0.71200007   11.92800000
      C          17.27200008    0.00000000    8.52000000
      C          17.27200008    0.00000000   11.92800000
      C          17.27200014    1.42399992    8.52000000
      C          18.50599988    0.71200007   11.92800000
      C          13.57100001    2.13699996    8.52000000
      C          13.57100001    2.13699996   11.92800000
      C          13.57099994    3.56100010    8.52000000
      C          14.80500005    2.84900003   11.92800000
      C          16.03800009    2.13699996    8.52000000