#Generated by Multiwfn
&GLOBAL
  PROJECT graphite_perfect_Xe_0.01_01-300K-xtb
  PRINT_LEVEL LOW
  RUN_TYPE MD
&END GLOBAL

&FORCE_EVAL
  METHOD Quickstep
  &SUBSYS
    &CELL
      A    24.67500000     0.00000000     0.00000000
      B   -12.34122944    21.36702321     0.00000000
      C     0.00000000     0.00000000    13.63200000
      PERIODIC XYZ #Direction(s) of applied PBC (geometry aspect)
    &END CELL
    &COORD
      C           7.38300000    4.29500000    5.22700000
      C           8.61400000    6.43000000    5.27300000
      C          -0.00100000    1.43000000    1.39600000
      C           1.28100000    0.71500000    4.18600000
      C           2.47900000    0.01800000    4.57500000
      C           6.14400000    6.42300000    5.39000000
      C           2.47900000    1.43300000    1.49300000
      C           3.69500000    0.73500000    4.80600000
      C           7.39600000    4.29200000    1.77100000
      C           4.95000000    0.00800000    1.73200000
      C          -1.24400000    3.57200000    1.37700000
      C           0.02400000    2.89200000    4.14300000
      C           1.23900000    2.14500000    1.42800000
      C           1.27200000    2.16800000    4.25200000
      C           1.23700000    3.57500000    1.43400000
      C           2.47100000    2.87700000    4.60300000
      C           7.38000000    7.13500000    5.41400000
      C           9.85900000    0.02700000    5.43800000
      C          -2.48300000    5.71400000    1.43700000
      C          -1.21400000    5.08000000    4.02600000
      C          -0.00300000    4.28800000    1.39400000
      C           0.04100000    4.33900000    4.17300000
      C          -0.00100000    5.71900000    1.41700000
      C           1.24500000    5.03200000    4.56900000
      C           6.17500000    9.23800000    5.96300000
      C           7.40400000    0.01300000    2.09300000
      C          -3.70900000    7.84400000    1.65100000
      C          -2.45400000    7.16100000    4.64100000
      C          -1.24200000    6.42800000    1.44500000
      C          -1.21200000    6.48100000    4.41900000
      C          -1.23600000    7.85400000    1.52000000
      C           0.01400000    7.16200000    4.74100000
      Xe         -1.47600000    4.36200000    6.81200000
      C           4.93400000    8.53900000    0.87800000
      C          -4.93800000    9.97600000    1.82400000
      C          -3.69200000    9.28000000    4.93900000
      C          -2.47200000    8.55800000    1.62200000
      C          -2.45600000    8.57100000    4.87100000
      C          -2.46800000    9.98300000    1.68000000
      C          -1.22500000    9.27700000    5.01100000
      C           9.85400000    4.28600000    1.97400000
      C           6.16700000    6.43100000    1.41600000
      C           4.94300000    1.43500000    1.70000000
      C           6.15100000    0.73400000    5.14700000
      C           6.16600000    7.84300000    1.16100000
      C           8.61900000    5.00500000    5.23900000
      C           7.39600000    1.44000000    2.02800000
      C           8.61800000    0.73600000    5.35600000
      C           3.71100000    2.14800000    1.58400000
      C           3.69100000    2.16200000    4.82000000
      C           3.70400000    3.57600000    1.56400000
      C           4.91600000    2.86900000    5.02400000
      C           6.17300000    2.15000000    1.81000000
      C           6.14900000    2.16000000    5.13800000
      C           6.16500000    3.57600000    1.72300000
      C           7.38300000    2.87000000    5.22700000
      C           2.47000000    4.29200000    1.50200000
      C           2.46600000    4.30400000    4.73400000
      C           2.47000000    5.72000000    1.46000000
      C           3.67900000    5.00700000    5.03500000
      C           4.93700000    4.29400000    1.59300000
      C           4.91500000    4.29400000    5.09600000
      C           4.93200000    5.71900000    1.47500000
      C           6.14500000    5.00400000    5.23500000
      C           1.23500000    6.43400000    1.45400000
      C           1.24200000    6.44000000    4.84400000
      C           1.23900000    7.86100000    1.40800000
      C           2.44600000    7.13300000    5.21700000
      C           3.70200000    6.43700000    1.37700000
      C           3.68000000    6.41900000    5.27000000
      C           3.69900000    7.85300000    1.15100000
      C           4.90400000    7.11900000    5.53700000
      C           0.00100000    8.56700000    1.49900000
      C           0.01100000    8.56500000    5.02400000
      C           0.00200000    9.99300000    1.51000000
      C           1.22600000    9.26200000    5.32300000
      C           2.46700000    8.57500000    1.23200000
      C           2.44200000    8.53600000    5.51900000
      C           2.44900000   10.00100000    1.10100000
      C           3.64200000    9.22600000    5.94400000
      C           7.38900000    5.71300000    1.61000000
      C           7.38800000    8.55300000    5.59700000
      C           9.82100000    1.47400000    2.57500000
      C          11.10200000    0.74000000    5.43700000
      C           4.92800000    9.98400000    0.56900000
      C           4.90900000    8.51000000    5.90800000
      C           8.61500000    2.16400000    2.20200000
      C           8.62000000    2.16200000    5.30700000
      C           8.61700000    3.57800000    1.98300000
      C           9.86000000    2.87300000    5.31400000
      C          -3.68800000    6.44400000    4.65500000
      C          -1.23100000    2.16600000    4.13200000
      C           9.81500000    0.02400000    2.72000000
      Xe          4.93000000   10.25400000    3.40200000
      C           7.38400000    0.02400000    5.26000000
      C           4.92000000    0.02600000    5.00800000
      C           2.48100000    0.00400000    1.51800000
      C          -4.92600000    8.56800000    4.90900000
      C          -2.49400000    4.33200000    4.08800000
      C           8.62300000    6.42500000    1.64400000
      Xe         10.90500000    0.28000000    0.00600000
      C           9.84200000    4.25700000    8.40700000
      C           8.61300000    6.38900000    8.53900000
      C          -0.00900000    1.37400000    9.68400000
      C           1.25500000    0.71500000   12.22300000
      C           6.13300000    6.38400000    8.64700000
      C           6.18500000    6.41900000   11.80400000
      C           2.44500000    1.39000000    9.11500000
      C           3.72600000    0.71900000   12.03400000
      C           6.18900000    9.26600000   11.65500000
      C          -1.23200000    2.14200000   12.27500000
      C          -1.28600000    3.55100000    9.63900000
      C           0.01200000    2.85900000   12.26700000
      C           1.23100000    2.10500000    9.41900000
      C           1.25400000    2.14700000   12.23000000
      C           1.20200000    3.53800000    9.28900000
      C           2.49000000    2.85900000   12.13000000
      C           4.91300000    9.94900000    8.80500000
      C           7.38900000    8.52200000    8.68700000
      C          -2.55400000    5.73200000    9.32900000
      C          -1.23300000    5.00200000   12.22400000
      C          -0.02700000    4.26800000    9.46400000
      C           0.01100000    4.29000000   12.23000000
      C          -0.04200000    5.70300000    9.27100000
      C           1.24800000    5.00100000   12.12700000
      C           6.14600000    7.81100000    8.71100000
      C          11.07800000    2.12600000    8.24600000
      C          -3.75500000    7.82600000    8.67000000
      C          -2.47600000    7.13700000   12.11900000
      C          -1.29100000    6.42700000    9.21200000
      C          -1.23600000    6.42800000   12.14100000
      C          -1.28800000    7.82600000    8.89700000
      C           0.00200000    7.13800000   12.05200000
      C           7.42200000    7.13200000   11.79500000
      C           9.87700000    2.86900000   11.41300000
      C          -4.97500000    9.94900000    8.21600000
      C          -3.71900000    9.27200000   12.12800000
      C          -2.51600000    8.53300000    8.70000000
      C          -2.48100000    8.56300000   12.06700000
      C          -2.51500000    9.95300000    8.54300000
      C          -1.24400000    9.27200000   11.98100000
      C           8.65400000    4.99300000   11.76000000
      C           7.37200000    5.67900000    8.56500000
      C           4.89000000    1.40400000    8.66000000
      C           6.18900000    0.71700000   11.77000000
      C           6.15800000   10.66100000    8.79700000
      C           7.42000000    4.27900000   11.78000000
      C           7.35900000    1.41100000    8.41800000
      C           8.62100000    0.72900000   11.28200000
      C           3.65800000    2.10700000    8.85400000
      C           3.72400000    2.14600000   12.04300000
      C           3.65000000    3.53500000    8.81800000
      C           4.95800000    2.85600000   11.93400000
      C           6.12300000    2.11600000    8.53900000
      C           6.19000000    2.14300000   11.81800000
      C           6.12400000    3.54300000    8.56700000
      C           7.42000000    2.85500000   11.69600000
      C           2.41500000    4.24200000    8.97600000
      C           2.48400000    4.28700000   12.07900000
      C           2.41500000    5.66900000    8.88000000
      C           3.71700000    4.99600000   11.96000000
      C           4.88500000    4.24600000    8.67500000
      C           4.95300000    4.28200000   11.92100000
      C           4.89100000    5.67300000    8.67800000
      C           6.18600000    4.99300000   11.84000000
      C           1.18200000    6.38800000    8.97000000
      C           1.24100000    6.42600000   12.03200000
      C           1.18600000    7.81000000    8.81800000
      C           2.47400000    7.13300000   11.89800000
      C           3.65200000    6.38000000    8.75300000
      C           3.71200000    6.42000000   11.87300000
      C           3.66300000    7.80800000    8.75600000
      C           4.94700000    7.12800000   11.76700000
      C          -0.04800000    8.52600000    8.77400000
      C          -0.00500000    8.56200000   11.96000000
      C          -0.04200000    9.95000000    8.65900000
      C           1.23000000    9.27100000   11.84700000
      C           2.42500000    8.52100000    8.76100000
      C           2.46800000    8.55800000   11.79800000
      C           2.43100000    9.94900000    8.74700000
      C           3.70200000    9.26500000   11.66600000
      C           7.36400000    4.25300000    8.51600000
      C          -2.47300000    4.28500000   12.24600000
      C           9.83400000    1.41700000    8.24300000
      C          11.09300000    0.76700000   10.79900000
      C           4.94600000    8.55400000   11.66500000
      C           4.90500000    8.51900000    8.77200000
      C           8.59700000    2.12300000    8.35800000
      C           8.64300000    2.14900000   11.46900000
      C           8.60200000    3.54800000    8.42400000
      C          -1.27600000   10.66200000    8.55900000
      C           0.01300000    0.00100000   12.24300000
      C           7.41200000    0.00800000   11.55100000
      C           4.95900000    0.00800000   11.92100000
      C           3.67200000   10.66300000    8.79600000
      C           2.49100000    0.00700000   12.12000000
      C           9.82400000    0.02300000   10.91700000
      C          -3.74500000   10.66100000    8.36400000
      C           1.19600000   10.66100000    8.66300000
      Xe         -0.06400000    1.09600000    6.82200000
      C          -1.22800000   10.69800000    5.11800000
      C          -3.69600000   10.70400000    5.00200000
      C          -6.16900000   12.11400000    1.94900000
      C          -4.93100000   11.41500000    4.95900000
      C           3.64800000   10.68900000    6.02900000
      C         -11.10300000   19.23300000    1.58600000
      C          -3.70000000   12.11600000    1.82500000
      C          -2.46200000   11.41200000    5.08900000
      C          -3.70300000   10.69100000    1.77300000
      C          -6.17100000   10.68700000    1.92200000
      C          -7.40200000   14.26000000    1.99500000
      C          -6.16600000   13.55600000    4.91000000
      C          -4.93400000   12.82800000    1.88400000
      C          -4.93300000   12.84100000    4.98600000
      C          -4.93100000   14.25400000    1.92200000
      C          -3.70000000   13.55000000    5.09100000
      C          -7.40500000   12.82900000    2.01500000
      Xe         -0.82000000   18.03100000    0.00000000
      C          -8.63600000   16.39800000    1.88100000
      C          -7.40700000   15.69400000    4.93800000
      C          -6.16500000   14.96900000    1.92500000
      C          -6.17000000   14.98200000    4.97100000
      C          -6.16000000   16.39600000    1.92000000
      C          -4.93800000   15.69000000    5.09800000
      C           3.65400000   10.73200000    0.78000000
      C          -9.87300000   17.10400000    1.78400000
      C          -9.86600000   18.52700000    1.68700000
      C          -8.64600000   17.83100000    4.97000000
      C          -7.39600000   17.10600000    1.85700000
      C          -7.41100000   17.11900000    5.01200000
      C          -7.39100000   18.53100000    1.81000000
      C          -6.17900000   17.82900000    5.11600000
      C           0.01000000   18.49000000    2.83000000
      C          -8.64200000   14.97300000    1.97600000
      C         -11.09900000   20.65700000    1.48100000
      C          -9.87500000   19.96700000    4.75300000
      C          -8.62700000   19.23800000    1.70100000
      C          -8.64900000   19.25700000    4.93400000
      C          -8.62500000   20.66300000    1.63800000
      C          -7.41800000   19.96700000    5.04400000
      C           0.00500000   19.96300000    5.47900000
      C          -1.26100000   20.66400000    2.83600000
      C          -1.23100000   12.12000000    1.73700000
      C           0.00400000   11.40300000    5.26500000
      C           1.23100000   10.70800000    1.37300000
      C          -1.23900000   19.24900000    5.46700000
      C           1.23000000   12.13000000    1.50600000
      C           2.44900000   11.39800000    5.66100000
      C          -2.46500000   12.82800000    1.84100000
      C          -2.46500000   12.83700000    5.13200000
      C          -2.46300000   14.24700000    1.99000000
      C          -1.23000000   13.54300000    5.22600000
      C           0.00500000   12.83400000    1.73300000
      C           0.00500000   12.82900000    5.26300000
      C           0.00300000   14.24500000    1.96200000
      C           1.24000000   13.53600000    5.34800000
      C          -3.69500000   14.96400000    1.99800000
      C          -3.70400000   14.97500000    5.15500000
      C          -3.69700000   16.38400000    2.15000000
      C          -2.47100000   15.68200000    5.27400000
      C          -1.22800000   14.94400000    2.15900000
      C          -1.23400000   14.96800000    5.28600000
      C          -1.23800000   16.33300000    2.52100000
      C           0.00400000   15.67600000    5.35300000
      C          -4.92300000   17.10500000    2.02200000
      C          -4.94500000   17.11500000    5.17100000
      C          -4.92400000   18.53100000    2.06700000
      C          -3.71300000   17.82300000    5.29500000
      C          -2.48200000   17.07200000    2.46300000
      C          -2.47600000   17.10800000    5.34600000
      C          -2.49200000   18.51200000    2.57700000
      C          -1.23800000   17.81700000    5.42900000
      C          -6.15500000   19.24100000    1.90500000
      C          -6.18500000   19.25500000    5.14500000
      C          -6.16000000   20.66800000    1.89600000
      C          -4.95300000   19.96400000    5.25700000
      C          -3.70600000   19.23800000    2.32600000
      C          -3.71800000   19.25100000    5.33300000
      C          -3.72600000   20.66900000    2.38700000
      C          -2.48200000   19.96200000    5.43100000
      C          -1.24900000   19.22400000    2.77000000
      C           1.24600000   17.81800000    5.42500000
      C           3.67100000   12.15700000    1.06600000
      C           4.92200000   11.43400000    6.08900000
      C           2.45800000   12.85200000    1.41000000
      C           2.46700000   12.82000000    5.49200000
      C           2.45600000   14.25600000    1.69900000
      C           3.70100000   13.53500000    5.51100000
      C           1.24100000   14.95700000    1.99400000
      C           1.24000000   14.96300000    5.32500000
      C           1.24400000   16.35400000    2.32100000
      C           2.47500000   15.67700000    5.32800000
      C           0.02200000   17.03600000    2.66700000
      C           0.00500000   17.10400000    5.42500000
      C          -1.23200000   10.69700000    1.64700000
      C         -11.10700000   19.25200000    4.72000000
      C          -8.64400000   14.98300000    4.86300000
      C          -7.40300000   12.84400000    4.81700000
      C          -6.16600000   10.70400000    4.88600000
      C           1.23000000   10.68600000    5.41500000
      C           3.69100000   14.97000000    1.71100000
      C          -9.88000000   17.11800000    4.92600000
      C         -12.32300000   21.34100000    4.12800000
      C          -0.00600000   17.04900000   10.95200000
      C          -7.35200000   12.85300000   12.86900000
      C          -6.19500000   12.08800000    7.88400000
      C          -4.95100000   11.40800000   12.27500000
      C           2.45900000   17.06700000    8.31400000
      C          -1.26400000   20.64000000    8.17600000
      C          -3.74700000   12.08700000    8.31100000
      C          -2.48500000   11.40700000   11.97300000
      C          -9.84700000   17.10200000   12.24400000
      C           1.22400000   19.20700000    8.18300000
      C          -7.41300000   14.26200000    7.68100000
      C          -6.14800000   13.56000000   12.49400000
      C          -4.97700000   12.79600000    8.13900000
      C          -4.93700000   12.83800000   12.24300000
      C          -4.97700000   14.22300000    8.16900000
      C          -3.71700000   13.54300000   11.97500000
      C           3.68600000   14.93600000    8.52100000
      C          -1.26200000   19.22800000   10.87100000
      C          -8.67200000   16.38200000    8.07700000
      C          -7.37400000   15.70200000   12.42300000
      C          -6.20200000   14.94600000    8.02900000
      C          -6.14600000   14.98000000   12.29400000
      C          -6.20700000   16.36400000    8.20300000
      C          -4.93600000   15.67900000   11.95400000
      C         -11.08700000   19.23400000   12.12600000
      C           4.91900000   12.80400000    8.72200000
      C          -9.90000000   18.48900000    8.58000000
      C          -8.61500000   17.81400000   12.14000000
      C          -7.43900000   17.08100000    8.24300000
      C          -7.37500000   17.10800000   12.15900000
      C          -7.44100000   18.49800000    8.41900000
      C          -6.15400000   17.81400000   11.91000000
      C          -8.60400000   15.01900000   12.73800000
      C          -9.89400000   21.32700000    9.01700000
      C         -11.11300000   20.58800000    9.17000000
      C          -9.85100000   19.94700000   12.09400000
      C          -8.66900000   19.20800000    8.58000000
      C          -8.61400000   19.23800000   12.05000000
      C          -8.67500000   20.62800000    8.73900000
      C          -7.38200000   19.94900000   11.92900000
      C          -1.26200000   19.20800000    8.17600000
      C          -0.00600000   19.94900000   10.88100000
      C          -1.27300000   12.08700000    8.49100000
      C          -0.01100000   11.40900000   11.83300000
      C           1.23400000   17.79200000   11.04800000
      C           2.45500000   15.68800000   11.55000000
      C           1.20200000   12.08700000    8.60000000
      C           2.46200000   11.41000000   11.70800000
      C          -2.50900000   12.79500000    8.39600000
      C          -2.48200000   12.83200000   11.89400000
      C          -2.50600000   14.22000000    8.35600000
      C          -1.25200000   13.54300000   11.72500000
      C          -0.03400000   12.79600000    8.50500000
      C          -0.01200000   12.83500000   11.76600000
      C          -0.02800000   14.22000000    8.42000000
      C           1.22200000   13.54900000   11.68900000
      C          -3.74300000   14.93100000    8.29000000
      C          -3.71400000   14.96000000   11.79000000
      C          -3.74000000   16.35700000    8.28800000
      C          -2.49900000   15.65800000   11.47100000
      C          -1.26600000   14.92800000    8.34500000
      C          -1.25400000   14.95600000   11.50700000
      C          -1.26300000   16.35200000    8.24500000
      C          -0.01800000   15.65600000   11.31700000
      C          -4.97400000   17.07300000    8.29700000
      C          -4.93000000   17.09600000   11.75100000
      C          -4.97500000   18.49900000    8.34300000
      C          -3.72200000   17.79800000   11.40900000
      C          -2.50300000   17.06600000    8.24100000
      C          -2.51300000   17.06200000   11.16600000
      C          -2.50500000   18.49600000    8.21900000
      C          -1.28200000   17.76300000   10.80100000
      C          -6.20700000   19.21200000    8.41700000
      C          -6.14900000   19.23800000   11.81300000
      C          -6.21300000   20.63800000    8.47000000
      C          -4.92700000   19.94600000   11.57900000
      C          -3.74000000   19.21100000    8.28500000
      C          -3.70900000   19.23100000   11.34600000
      C          -3.74600000   20.63900000    8.27700000
      C          -2.50300000   19.94600000   11.02100000
      C          -0.01900000   18.49400000    8.17800000
      C          -0.02000000   17.06200000    8.21200000
      C           3.67700000   12.09300000    8.73700000
      C           4.94400000   11.41200000   11.63800000
      C           2.44100000   12.80000000    8.62400000
      C           2.46000000   12.83800000   11.72200000
      C           2.44800000   14.22400000    8.52100000
      C           3.69800000   13.55000000   11.72200000
      C           1.21200000   14.93000000    8.41200000
      C           1.21900000   14.97000000   11.53700000
      C           1.22000000   16.35300000    8.29800000
      C          -4.98000000   21.35100000    8.38400000
      C          -1.24600000   10.69800000   11.93100000
      C          -3.71900000   10.69900000   12.11400000
      C           3.70100000   10.69700000   11.63700000
      C          -6.17500000   10.69600000   12.50100000
      C           1.22700000   10.69800000   11.79900000
      C          -2.50700000   21.35300000    8.20200000
      C          -0.01900000   21.35200000    8.17900000
      C          -7.44600000   21.34500000    8.61400000
      C          12.33000000    1.45100000    2.56400000
      C          13.59000000    0.74400000    5.42500000
      C          11.08000000    3.57300000    2.15800000
      C          12.34300000    2.87500000    5.30600000
      C          20.95800000    6.41900000    1.56600000
      C           9.84800000    5.70500000    1.80700000
      C          11.09500000    5.00500000    5.19000000
      C          12.33800000    0.01800000    2.75400000
      C           8.61500000    7.84800000    1.51200000
      C           9.84900000    7.13900000    5.19500000
      C          22.21800000    0.01900000    4.50800000
      C          17.26900000    9.97100000    1.99600000
      C           7.40500000    9.98800000    1.11300000
      C           8.61300000    9.26800000    5.40200000
      C          14.84800000    0.03400000    2.69700000
      C          19.77600000    0.03700000    4.94100000
      C          14.81000000    1.43700000    2.37200000
      C          16.07500000    0.74600000    5.32600000
      C          17.27400000    8.56400000    4.86700000
      C          19.73300000    8.55000000    1.77200000
      C          17.26000000    1.42200000    1.96800000
      C          18.54400000    0.74700000    5.08100000
      C          13.56300000    2.14000000    2.31800000
      C          13.58600000    2.16900000    5.32600000
      C          13.55200000    3.55200000    2.07700000
      C          14.82500000    2.87600000    5.23900000
      C          16.02600000    2.13200000    2.07400000
      C          16.06800000    2.17000000    5.23300000
      C          16.02000000    3.55200000    1.91800000
      C          17.30400000    2.87700000    5.10100000
      C          12.31800000    4.27000000    2.02500000
      C          12.33600000    4.29800000    5.20400000
      C          12.31500000    5.69300000    1.89800000
      C          13.57300000    5.00400000    5.12000000
      C          14.78400000    4.26300000    1.93900000
      C          14.81500000    4.29800000    5.13700000
      C          14.78400000    5.69000000    1.89000000
      C          16.05200000    5.00500000    5.04400000
      C          11.08400000    6.41400000    1.81400000
      C          11.08700000    6.42900000    5.13600000
      C          11.07800000    7.84000000    1.76700000
      C          12.32300000    7.13600000    5.03900000
      C          13.55000000    6.40500000    1.88700000
      C          13.56300000    6.42700000    5.02400000
      C          13.54600000    7.83200000    1.91700000
      C          14.80000000    7.13300000    4.92200000
      C           9.84800000    8.55700000    1.63400000
      C           9.84400000    8.56400000    5.21500000
      C           9.84500000    9.98300000    1.59800000
      C          11.07700000    9.27100000    5.07500000
      C          12.31300000    8.54900000    1.85000000
      C          12.31400000    8.56200000    4.98500000
      C          12.30900000    9.97600000    1.85800000
      C          13.54800000    9.26900000    4.86200000
      C           7.39700000    8.56200000    1.25900000
      C          11.10200000    2.16700000    5.36200000
      C          19.71700000    1.42400000    1.63400000
      C          20.99600000    0.74500000    4.67800000
      C          12.34700000    0.03000000    5.46500000
      C          18.51100000    9.27700000    4.88800000
      C          22.18800000    1.42700000    1.44200000
      C          23.42700000    0.70900000    4.12300000
      C          18.48300000    2.13200000    1.75400000
      C          18.54300000    2.17300000    5.00200000
      C          18.48400000    3.55800000    1.69600000
      C          19.76900000    2.88100000    4.77900000
      C          20.94900000    2.13600000    1.50300000
      C          20.99500000    2.17300000    4.56800000
      C          20.95000000    3.56500000    1.46900000
      C          22.19600000    2.88300000    4.21000000
      C          17.25100000    4.26700000    1.79200000
      C          17.29400000    4.30100000    5.02600000
      C          17.25600000    5.69400000    1.80100000
      C          18.52700000    5.00800000    4.89500000
      C          19.71600000    4.27400000    1.58700000
      C          19.76000000    4.30600000    4.71900000
      C          19.72300000    5.70100000    1.62600000
      C          20.97100000    5.02800000    4.45800000
      C          16.02100000    6.40300000    1.87800000
      C          16.04200000    6.42800000    4.96000000
      C          16.02400000    7.82700000    1.96600000
      C          17.28000000    7.13800000    4.91100000
      C          18.49100000    6.40900000    1.75300000
      C          18.52100000    6.43300000    4.90400000
      C          18.49900000    7.83300000    1.83700000
      C          19.75500000    7.14500000    4.83600000
      C          14.78400000    8.54200000    1.99000000
      C          14.79100000    8.55800000    4.83300000
      C          14.78300000    9.97200000    2.01100000
      C          16.03300000    9.26900000    4.80200000
      C          17.26500000    8.54100000    1.95600000
      C          14.83600000    0.03300000    5.42700000
      C          11.08200000    2.17600000    2.48200000
      C          17.31300000    0.03500000    5.24200000
      C          17.27700000    0.00200000    2.12000000
      C          22.18700000    4.28200000    1.38800000
      C           9.85800000    4.29700000    5.24200000
      C          23.43000000    2.14000000    1.39100000
      C          12.32100000    1.41700000    8.21700000
      C          13.59300000    0.75000000   11.02300000
      C          11.08000000    3.55100000    8.33000000
      C          12.34600000    2.87100000   11.38500000
      C           9.88500000    4.28000000   11.65200000
      C           9.85000000    5.68300000    8.45200000
      C          11.11800000    4.98900000   11.76200000
      Xe         15.64900000    9.68800000   10.22600000