#Generated by Multiwfn
&GLOBAL
  PROJECT graphite_perfect_Xe_opt-PBE02
  PRINT_LEVEL LOW
  RUN_TYPE GEO_OPT
&END GLOBAL

&FORCE_EVAL
  METHOD Quickstep
  &SUBSYS
    &CELL
      A    24.67500000     0.00000000     0.00000000
      B   -12.34122944    21.36702321     0.00000000
      C     0.00000000     0.00000000    13.63200000
      PERIODIC XYZ #Direction(s) of applied PBC (geometry aspect)
    &END CELL
    &COORD
      C           0.00200000   -0.00300000    1.69500000
      C           0.00300000   -0.00300000    5.10700000
      C           0.00100000    1.42200000    1.69300000
      C           1.23800000    0.71200000    5.10600000
      C           2.47000000   -0.00200000    1.69600000
      C           2.47200000    0.00000000    5.10600000
      C           2.46900000    1.42100000    1.68900000
      C           3.70500000    0.71300000    5.09900000
      C          -1.23200000    2.13400000    1.69200000
      C          -1.22900000    2.13600000    5.10500000
      C          -1.23300000    3.55800000    1.68700000
      C           0.00500000    2.84900000    5.09500000
      C           1.23500000    2.13400000    1.68700000
      C           1.24000000    2.13800000    5.09500000
      C           1.23300000    3.55800000    1.67400000
      C           2.47300000    2.85100000    5.06900000
      C           0.00100000    0.00000000    8.52100000
      C           0.00200000    0.00400000   11.93000000
      C           0.00300000    1.42600000    8.52200000
      C           1.23700000    0.71600000   11.93300000
      C           2.46900000    0.00300000    8.52600000
      C           2.47000000    0.00400000   11.93500000
      C           2.47000000    1.42800000    8.53600000
      C           3.70300000    0.71500000   11.94200000
      C          -1.23100000    2.13800000    8.52000000
      C          -1.23100000    2.14100000   11.93200000
      C          -1.23000000    3.56300000    8.52800000
      C           0.00200000    2.85200000   11.93900000
      C           1.23700000    2.14100000    8.53400000
      C           1.23600000    2.14000000   11.94000000
      C           1.23700000    3.56600000    8.56000000
      C           2.47000000    2.85100000   11.95500000
      C          -2.46700000    4.27100000    1.68800000
      C          -2.46200000    4.27300000    5.10000000
      C          -2.46800000    5.69400000    1.68400000
      C          -1.22700000    4.98600000    5.08000000
      C           0.00200000    4.27000000    1.67600000
      C           0.00700000    4.27600000    5.07200000
      C           0.00000000    5.69500000    1.66100000
      C           1.24200000    4.99000000    5.02300000
      C          -3.70000000    6.40700000    1.68900000
      C          -3.69600000    6.40900000    5.09900000
      C          -3.70100000    7.83100000    1.68800000
      C          -2.46100000    7.12200000    5.07900000
      C          -1.23200000    6.40800000    1.67000000
      C          -1.22400000    6.41200000    5.06000000
      C          -1.23300000    7.83100000    1.66100000
      C           0.00800000    7.12300000    5.00000000
      C          -2.46500000    4.27500000    8.52400000
      C          -2.46500000    4.27700000   11.93600000
      C          -2.46500000    5.69900000    8.53500000
      C          -1.23100000    4.98900000   11.94600000
      C           0.00500000    4.27700000    8.55400000
      C           0.00200000    4.27700000   11.95000000
      C           0.00600000    5.70300000    8.58700000
      C           1.23600000    4.98900000   11.97200000
      C          -3.69800000    6.41100000    8.52900000
      C          -3.70000000    6.41400000   11.93800000
      C          -3.69800000    7.83600000    8.53400000
      C          -2.46600000    7.12700000   11.94700000
      C          -1.22700000    6.41300000    8.56700000
      C          -1.23100000    6.41500000   11.95600000
      C          -1.22600000    7.83600000    8.58800000
      C           0.00100000    7.12600000   11.98100000
      C          -4.93400000    8.54400000    1.69400000
      C          -4.93100000    8.54500000    5.10400000
      C          -4.93400000    9.96800000    1.69500000
      C          -3.69600000    9.25700000    5.09200000
      C          -2.46700000    8.54400000    1.67600000
      C          -2.45900000    8.54600000    5.07200000
      C          -2.46800000    9.96700000    1.67500000
      C          -1.22300000    9.25800000    5.02500000
      C          -6.16800000   10.68100000    1.69800000
      C          -6.16800000   10.68100000    5.11000000
      C          -6.16900000   12.10400000    1.69800000
      C          -4.93200000   11.39300000    5.10600000
      C          -3.70100000   10.68000000    1.68900000
      C          -3.69600000   10.68200000    5.09300000
      C          -3.70100000   12.10500000    1.69000000
      C          -2.46100000   11.39300000    5.06800000
      C          -4.93300000    8.54700000    8.52600000
      C          -4.93400000    8.55100000   11.93400000
      C          -4.93300000    9.97100000    8.52600000
      C          -3.70100000    9.26300000   11.94100000
      C          -2.46200000    8.54800000    8.55700000
      C          -2.46600000    8.55000000   11.95200000
      C          -2.46200000    9.97100000    8.56200000
      C          -1.23300000    9.26300000   11.97300000
      C          -6.16900000   10.68300000    8.52200000
      C          -6.16800000   10.68700000   11.93200000
      C          -6.17000000   12.10600000    8.52100000
      C          -4.93400000   11.40000000   11.93400000
      C          -3.69700000   10.68200000    8.53800000
      C          -3.70100000   10.68800000   11.94100000
      C          -3.69800000   12.10700000    8.53600000
      C          -2.46800000   11.40100000   11.95500000
      C          -7.40400000   12.81700000    1.69500000
      C          -7.40500000   12.81700000    5.10700000
      C          -7.40300000   14.24100000    1.69600000
      C          -6.16800000   13.52900000    5.11200000
      C          -4.93400000   12.81700000    1.69600000
      C          -4.93200000   12.81700000    5.10800000
      C          -4.93500000   14.24100000    1.69600000
      C          -3.69800000   13.52800000    5.09900000
      C          -8.63700000   14.95300000    1.69200000
      C          -8.63900000   14.95300000    5.09900000
      C          -8.63700000   16.37800000    1.69400000
      C          -7.40400000   15.66600000    5.11000000
      C          -6.16900000   14.95400000    1.69800000
      C          -6.16900000   14.95300000    5.11300000
      C          -6.17000000   16.37800000    1.69800000
      C          -4.93300000   15.66600000    5.11200000
      C          -7.40600000   12.81800000    8.52400000
      C          -7.40300000   12.82400000   11.93600000
      C          -7.40600000   14.24300000    8.52300000
      C          -6.16900000   13.53700000   11.93400000
      C          -4.93300000   12.81800000    8.52400000
      C          -4.93400000   12.82400000   11.93500000
      C          -4.93400000   14.24300000    8.52300000
      C          -3.70200000   13.53600000   11.94100000
      C          -8.64100000   14.95400000    8.53100000
      C          -8.63700000   14.96100000   11.94200000
      C          -8.64000000   16.38000000    8.52700000
      C          -7.40300000   15.67300000   11.93700000
      C          -6.17000000   14.95500000    8.51900000
      C          -6.16900000   14.96000000   11.93500000
      C          -6.17000000   16.38000000    8.51900000
      C          -4.93500000   15.67300000   11.93700000
      C          -9.87200000   17.09000000    1.69100000
      C          -9.87200000   17.08900000    5.09700000
      C          -9.87200000   18.51500000    1.69500000
      C          -8.63800000   17.80200000    5.10700000
      C          -7.40400000   17.09000000    1.69800000
      C          -7.40400000   17.09000000    5.11100000
      C          -7.40400000   18.51500000    1.69800000
      C          -6.16900000   17.80300000    5.11400000
      C         -11.10600000   19.22700000    1.69400000
      C         -11.10600000   19.22500000    5.10100000
      C         -11.10700000   20.65200000    1.69700000
      C          -9.87000000   19.94000000    5.10700000
      C          -8.63800000   19.22700000    1.69800000
      C          -8.63800000   19.22800000    5.10800000
      C          -8.63800000   20.65200000    1.69700000
      C          -7.40300000   19.94100000    5.11000000
      C          -9.87500000   17.09100000    8.53300000
      C          -9.87000000   17.09700000   11.94200000
      C          -9.87400000   18.51700000    8.52800000
      C          -8.63700000   17.80900000   11.93800000
      C          -7.40600000   17.09200000    8.52100000
      C          -7.40400000   17.09700000   11.93700000
      C          -7.40500000   18.51800000    8.52300000
      C          -6.17000000   17.80900000   11.93700000
      C         -11.10900000   19.22800000    8.52800000
      C         -11.10500000   19.23300000   11.93600000
      C         -11.10700000   20.65500000    8.52400000
      C          -9.87000000   19.94500000   11.93400000
      C          -8.63900000   19.23100000    8.52500000
      C          -8.63800000   19.23400000   11.93600000
      C          -8.63900000   20.65700000    8.52700000
      C          -7.40300000   19.94600000   11.93800000
      C           4.93700000   -0.00200000    1.69400000
      C           4.93900000    0.00000000    5.10300000
      C           4.93600000    1.42200000    1.68300000
      C           6.17200000    0.71300000    5.09400000
      C           7.40500000   -0.00200000    1.69500000
      C           7.40500000    0.00000000    5.10400000
      C           7.40500000    1.42200000    1.68300000
      C           8.63900000    0.71300000    5.10000000
      C           3.70300000    2.13400000    1.67800000
      C           3.70500000    2.14000000    5.07300000
      C           3.70200000    3.55900000    1.65600000
      C           4.94000000    2.85300000    5.03800000
      C           6.17100000    2.13600000    1.67300000
      C           6.17100000    2.14100000    5.05900000
      C           6.17000000    3.55800000    1.64700000
      C           7.40300000    2.85400000    5.03500000
      C           4.93600000    0.00400000    8.53200000
      C           4.93800000    0.00300000   11.94200000
      C           4.93600000    1.43000000    8.55300000
      C           6.17100000    0.71400000   11.94800000
      C           7.40400000    0.00400000    8.53200000
      C           7.40400000    0.00300000   11.94400000
      C           7.40400000    1.43000000    8.55500000
      C           8.63900000    0.71500000   11.94500000
      C           3.70400000    2.14400000    8.55900000
      C           3.70200000    2.14000000   11.95400000
      C           3.70500000    3.57000000    8.60900000
      C           4.93800000    2.85200000   11.97000000
      C           6.17000000    2.14600000    8.57600000
      C           6.17000000    2.14100000   11.96300000
      C           6.17000000    3.56900000    8.63800000
      C           7.40300000    2.85200000   11.97300000
      C           2.47000000    4.27200000    1.65300000
      C           2.47600000    4.27900000    5.01700000
      C           2.46800000    5.69400000    1.62300000
      C           3.70700000    4.99200000    4.93900000
      C           4.93600000    4.27200000    1.63300000
      C           4.94000000    4.27800000    4.95800000
      C           4.93400000    5.69400000    1.59100000
      C           6.17100000    4.99000000    4.88900000
      C           1.23400000    6.40800000    1.63100000
      C           1.24500000    6.41400000    4.96300000
      C           1.23200000    7.83000000    1.60700000
      C           2.47600000    7.12500000    4.84300000
      C           3.70200000    6.40600000    1.58300000
      C           3.70800000    6.41500000    4.81900000
      C           3.70000000    7.83100000    1.53900000
      C           4.93900000    7.12400000    4.66400000
      C           2.47300000    4.28300000    8.61300000
      C           2.47000000    4.27800000   11.97600000
      C           2.47400000    5.70500000    8.68800000
      C           3.70200000    4.98800000   12.00700000
      C           4.93700000    4.28500000    8.67200000
      C           4.93700000    4.27600000   12.00000000
      C           4.93700000    5.70600000    8.79300000
      C           6.17000000    4.98600000   12.02400000
      C           1.23900000    6.41600000    8.66600000
      C           1.23600000    6.41400000   11.99500000
      C           1.24000000    7.83800000    8.73100000
      C           2.46900000    7.12400000   12.03700000
      C           3.70500000    6.41800000    8.81100000
      C           3.70200000    6.41300000   12.04600000
      C           3.70400000    7.83800000    8.96200000
      C           4.93600000    7.12400000   12.09000000
      C           0.00000000    8.54300000    1.63100000
      C           0.01200000    8.54900000    4.96600000
      C          -0.00100000    9.96800000    1.62500000
      C           1.24300000    9.25900000    4.84600000
      C           2.46800000    8.54400000    1.55800000
      C           2.48000000    8.55000000    4.74200000
      C           2.46600000    9.96700000    1.54000000
      C           3.70000000    9.25500000    4.52800000
      C          -1.23200000   10.68000000    1.65400000
      C          -1.22200000   10.68100000    5.02000000
      C          -1.23300000   12.10400000    1.65800000
      C           0.01000000   11.39100000    4.94700000
      C           1.23300000   10.68100000    1.58400000
      C           1.24400000   10.68100000    4.82600000
      C           1.23300000   12.10400000    1.59300000
      C           2.47300000   11.39300000    4.67000000
      C           0.00800000    8.54800000    8.66500000
      C           0.00100000    8.55100000   11.99500000
      C           0.00900000    9.97300000    8.68500000
      C           1.23300000    9.26400000   12.03700000
      C           2.47200000    8.54900000    8.89400000
      C           2.47000000    8.55100000   12.06800000
      C           2.47200000    9.97100000    8.95900000
      C           3.69900000    9.26100000   12.12300000
      C          -1.22300000   10.68200000    8.61100000
      C          -1.23200000   10.68700000   11.97600000
      C          -1.22500000   12.10600000    8.60500000
      C          -0.00100000   11.39900000   12.00600000
      C           1.24300000   10.68300000    8.80500000
      C           1.23300000   10.68700000   12.04600000
      C           1.24100000   12.10400000    8.78500000
      C           2.46600000   11.40100000   12.09000000
      C          -2.46700000   12.81700000    1.67900000
      C          -2.46100000   12.81600000    5.07400000
      C          -2.46800000   14.24100000    1.68400000
      C          -1.22600000   13.52800000    5.04200000
      C           0.00100000   12.81600000    1.63600000
      C           0.00900000   12.81600000    4.96600000
      C          -0.00100000   14.24200000    1.65000000
      C           1.24100000   13.52600000    4.90000000
      C          -3.70100000   14.95300000    1.69300000
      C          -3.69800000   14.95300000    5.10300000
      C          -3.70200000   16.37800000    1.69500000
      C          -2.46500000   15.66500000    5.09300000
      C          -1.23200000   14.95300000    1.67500000
      C          -1.22700000   14.95100000    5.06100000
      C          -1.23400000   16.37900000    1.68300000
      C           0.00600000   15.66100000    5.04100000
      C          -2.46100000   12.81800000    8.55700000
      C          -2.46800000   12.82300000   11.95400000
      C          -2.46400000   14.24100000    8.54900000
      C          -1.23400000   13.53700000   11.96900000
      C           0.01000000   12.81500000    8.66400000
      C           0.00000000   12.82500000   11.99900000
      C           0.00600000   14.24000000    8.63000000
      C           1.23100000   13.53800000   12.02300000
      C          -3.69900000   14.95400000    8.52900000
      C          -3.70200000   14.96100000   11.94100000
      C          -3.70100000   16.38000000    8.52600000
      C          -2.46900000   15.67400000   11.94700000
      C          -1.22700000   14.95200000    8.57000000
      C          -1.23300000   14.96000000   11.96100000
      C          -1.23000000   16.37800000    8.55200000
      C          -0.00200000   15.67200000   11.97100000
      C          -4.93500000   17.09000000    1.69800000
      C          -4.93400000   17.09000000    5.11300000
      C          -4.93600000   18.51500000    1.69900000
      C          -3.70000000   17.80200000    5.11200000
      C          -2.46800000   17.09000000    1.69300000
      C          -2.46500000   17.08900000    5.10100000
      C          -2.46800000   18.51500000    1.69800000
      C          -1.23100000   17.80100000    5.09600000
      C          -6.17000000   19.22800000    1.69900000
      C          -6.16900000   19.22900000    5.11300000
      C          -6.17000000   20.65200000    1.69700000
      C          -4.93500000   19.94200000    5.11400000
      C          -3.70200000   19.22700000    1.70000000
      C          -3.70100000   19.22800000    5.11400000
      C          -3.70300000   20.65200000    1.69800000
      C          -2.46800000   19.94000000    5.11300000
      C          -4.93500000   17.09300000    8.52000000
      C          -4.93600000   17.09700000   11.93800000
      C          -4.93600000   18.51900000    8.52100000
      C          -3.70300000   17.80900000   11.93900000
      C          -2.46500000   17.09100000    8.53200000
      C          -2.46900000   17.09700000   11.94300000
      C          -2.46700000   18.51700000    8.52800000
      C          -1.23500000   17.81000000   11.94500000
      C          -6.17100000   19.23200000    8.52200000
      C          -6.17000000   19.23400000   11.93800000
      C          -6.17100000   20.65700000    8.52800000
      C          -4.93700000   19.94600000   11.93900000
      C          -3.70200000   19.23100000    8.52300000
      C          -3.70200000   19.23400000   11.93800000
      C          -3.70300000   20.65700000    8.52600000
      C          -2.47000000   19.94500000   11.93800000
      C           9.87200000   -0.00200000    1.69800000
      C           9.87200000    0.00000000    5.11100000
      C           9.87200000    1.42100000    1.69000000
      C          11.10500000    0.71200000    5.11000000
      C          12.33900000   -0.00300000    1.69900000
      C          12.34000000   -0.00200000    5.11100000
      C          12.34000000    1.42200000    1.69600000
      C          13.57300000    0.70900000    5.11000000
      C           8.63800000    2.13400000    1.67800000
      C           8.63700000    2.14000000    5.07100000
      C           8.63800000    3.55900000    1.65500000
      C           9.86900000    2.85200000    5.06500000
      C          11.10600000    2.13400000    1.68800000
      C          11.10300000    2.13800000    5.09400000
      C          11.10700000    3.55800000    1.67300000
      C          12.33700000    2.85000000    5.09400000
      C           9.87100000    0.00300000    8.52700000
      C           9.87200000    0.00400000   11.93900000
      C           9.87000000    1.42800000    8.54000000
      C          11.10500000    0.71600000   11.93800000
      C          12.33900000    0.00000000    8.52300000
      C          12.34000000    0.00400000   11.93400000
      C          12.33700000    1.42700000    8.52500000
      C          13.57200000    0.71500000   11.93200000
      C           8.63600000    2.14400000    8.56400000
      C           8.63900000    2.14000000   11.95800000
      C           8.63400000    3.57000000    8.61600000
      C           9.87100000    2.85100000   11.96000000
      C          11.10300000    2.14100000    8.54000000
      C          11.10500000    2.14000000   11.94500000
      C          11.10200000    3.56700000    8.56900000
      C          12.33900000    2.85200000   11.94400000
      C           7.40500000    4.27200000    1.63200000
      C           7.40200000    4.27800000    4.95400000
      C           7.40500000    5.69400000    1.59000000
      C           8.63500000    4.99200000    4.93200000
      C           9.87100000    4.27200000    1.65100000
      C           9.86600000    4.28000000    5.01000000
      C           9.87200000    5.69300000    1.62200000
      C          11.10000000    4.99000000    5.01500000
      C           6.17000000    6.40900000    1.55900000
      C           6.17000000    6.41200000    4.72600000
      C           6.17000000    7.82900000    1.50500000
      C           7.40200000    7.12400000    4.65700000
      C           8.63700000    6.40600000    1.58200000
      C           8.63300000    6.41500000    4.80900000
      C           8.63900000    7.83100000    1.53800000
      C           9.86500000    7.12500000    4.82800000
      C           7.40200000    4.28500000    8.67700000
      C           7.40300000    4.27600000   12.00200000
      C           7.40200000    5.70600000    8.80000000
      C           8.63800000    4.98800000   12.01000000
      C           9.86600000    4.28300000    8.62300000
      C           9.87000000    4.27800000   11.98200000
      C           9.86500000    5.70500000    8.70300000
      C          11.10400000    4.98900000   11.97800000
      C           6.16900000    6.42200000    8.90000000
      C           6.17000000    6.41400000   12.07300000
      C           6.16900000    7.83100000    9.11300000
      C           7.40300000    7.12400000   12.09300000
      C           8.63300000    6.41800000    8.82500000
      C           8.63800000    6.41300000   12.05000000
      C           8.63400000    7.83800000    8.98300000
      C           9.87000000    7.12400000   12.04300000
      C           4.93400000    8.54300000    1.49200000
      C           4.93700000    8.53800000    4.45200000
      C           4.93200000    9.96600000    1.46400000
      C           6.16900000    9.23700000    4.25900000
      C           7.40500000    8.54300000    1.49100000
      C           7.40200000    8.53800000    4.44100000
      C           7.40600000    9.96600000    1.46100000
      C           8.64000000    9.25500000    4.50700000
      C           3.70000000   10.67900000    1.49200000
      C           3.69700000   10.68500000    4.45400000
      C           3.69900000   12.10600000    1.50600000
      C           4.91800000   11.40200000    4.25900000
      C           6.16900000   10.68000000    1.45600000
      C           6.16800000   10.68000000    4.12100000
      C           6.16900000   12.10900000    1.46100000
      C           7.42100000   11.40300000    4.24100000
      C           4.92900000    8.54500000    9.17900000
      C           4.93600000    8.54800000   12.13700000
      C           4.91800000    9.96200000    9.36700000
      C           6.16900000    9.25800000   12.16700000
      C           7.40800000    8.54400000    9.19400000
      C           7.40300000    8.54800000   12.14100000
      C           7.41900000    9.96100000    9.38600000
      C           8.63900000    9.26100000   12.12900000
      C           3.69600000   10.67900000    9.17600000
      C           3.70000000   10.68800000   12.13700000
      C           3.69700000   12.11000000    9.10600000
      C           4.93100000   11.40100000   12.16600000
      C           6.16600000   10.68300000    9.51100000
      C           6.16900000   10.68700000   12.17400000
      C           6.16700000   12.12900000    9.38300000
      C           7.40600000   11.40100000   12.17000000
      C           2.46900000   12.81600000    1.56100000
      C           2.47300000   12.81500000    4.73600000
      C           2.46800000   14.24400000    1.59200000
      C           3.70400000   13.52600000    4.66700000
      C           4.93500000   12.81900000    1.49100000
      C           4.92900000   12.82000000    4.44500000
      C           4.93500000   14.24400000    1.53700000
      C           6.16900000   13.53300000    4.51100000
      C           1.23500000   14.95400000    1.63500000
      C           1.23900000   14.94800000    4.96400000
      C           1.23400000   16.37800000    1.65700000
      C           2.47400000   15.65900000    4.94200000
      C           3.70000000   14.95500000    1.58300000
      C           3.70600000   14.94600000    4.82000000
      C           3.70000000   16.38000000    1.62300000
      C           4.93700000   15.65800000    4.83800000
      C           2.47800000   12.81400000    8.88900000
      C           2.46800000   12.82400000   12.07200000
      C           2.47300000   14.24000000    8.78800000
      C           3.69900000   13.53700000   12.09200000
      C           4.93500000   12.82700000    9.18700000
      C           4.93300000   12.82400000   12.14000000
      C           4.93600000   14.24100000    8.97100000
      C           6.16900000   13.53900000   12.12700000
      C           1.24200000   14.95000000    8.66700000
      C           1.23200000   14.96000000   12.00100000
      C           1.23800000   16.37400000    8.60900000
      C           2.46600000   15.67400000   12.00800000
      C           3.70500000   14.95000000    8.81200000
      C           3.70000000   14.96100000   12.04900000
      C           3.70300000   16.37300000    8.69100000
      C           4.93200000   15.67300000   12.04100000
      C           0.00000000   17.09000000    1.67900000
      C           0.00400000   17.08700000    5.07100000
      C          -0.00100000   18.51500000    1.69000000
      C           1.23600000   17.79800000    5.06400000
      C           2.46800000   17.08900000    1.65300000
      C           2.47200000   17.08100000    5.01500000
      C           2.46700000   18.51700000    1.67400000
      C           3.70400000   17.79400000    5.01900000
      C          -1.23400000   19.22700000    1.69700000
      C          -1.23300000   19.22600000    5.10600000
      C          -1.23400000   20.65200000    1.70000000
      C           0.00100000   19.93800000    5.10500000
      C           1.23300000   19.22700000    1.68800000
      C           1.23500000   19.22300000    5.08900000
      C           1.23300000   20.65200000    1.69600000
      C           2.46900000   19.93600000    5.08900000
      C           0.00400000   17.08900000    8.56200000
      C          -0.00100000   17.09800000   11.95700000
      C           0.00100000   18.51500000    8.54200000
      C           1.23100000   17.81000000   11.95800000
      C           2.47200000   17.08500000    8.61600000
      C           2.46700000   17.09600000   11.97900000
      C           2.46900000   18.51300000    8.56700000
      C           3.70000000   17.80800000   11.97600000
      C          -1.23300000   19.22900000    8.53000000
      C          -1.23500000   19.23300000   11.93900000
      C          -1.23500000   20.65600000    8.52500000
      C          -0.00200000   19.94500000   11.93700000
      C           1.23500000   19.22700000    8.54200000
      C           1.23200000   19.23300000   11.94400000
      C           1.23300000   20.65300000    8.52800000
      C           2.46600000   19.94600000   11.94200000
      C          14.80800000   -0.00400000    1.69500000
      C          14.80800000   -0.00600000    5.10300000
      C          14.80800000    1.42200000    1.69600000
      C          16.04100000    0.70700000    5.10300000
      C          17.27500000   -0.00300000    1.68800000
      C          17.27500000   -0.00700000    5.09500000
      C          17.27500000    1.42200000    1.69300000
      C          18.50900000    0.70700000    5.10000000
      C          13.57300000    2.13400000    1.69500000
      C          13.57100000    2.13600000    5.10800000
      C          13.57300000    3.55800000    1.68800000
      C          14.80500000    2.84800000    5.10700000
      C          16.04000000    2.13400000    1.69500000
      C          16.04000000    2.13400000    5.10900000
      C          16.04100000    3.55800000    1.69400000
      C          17.27400000    2.84600000    5.11000000
      C          14.80700000   -0.00300000    8.52700000
      C          14.80700000    0.00300000   11.93400000
      C          14.80600000    1.42400000    8.52100000
      C          16.04000000    0.71500000   11.93300000
      C          17.27500000   -0.00300000    8.53000000
      C          17.27400000    0.00300000   11.93700000
      C          17.27400000    1.42300000    8.52100000
      C          18.50800000    0.71500000   11.93500000
      C          13.57000000    2.13900000    8.52300000
      C          13.57200000    2.14100000   11.93500000
      C          13.56900000    3.56300000    8.53400000
      C          14.80600000    2.85300000   11.93400000
      C          16.03900000    2.13600000    8.52000000