#Generated by Multiwfn
&GLOBAL
  PROJECT graphite-opt_Gamma
  PRINT_LEVEL LOW
  RUN_TYPE CELL_OPT
&END GLOBAL

&FORCE_EVAL
  METHOD Quickstep
  &SUBSYS
    &CELL
      A    24.60000000     0.00000000     0.00000000
      B   -12.30000000    21.30422493     0.00000000
      C     0.00000000     0.00000000    13.60000000
      PERIODIC XYZ #Direction(s) of applied PBC (geometry aspect)
    &END CELL
    &COORD
      C           0.00000000    0.00000000    1.70000000
      C           0.00000000    0.00000000    5.10000000
      C           0.00000000    1.42000000    1.70000000
      C           1.23000000    0.71000000    5.10000000
      C           2.46000000    0.00000000    1.70000000
      C           2.46000000    0.00000000    5.10000000
      C           2.46000000    1.42000000    1.70000000
      C           3.69000000    0.71000000    5.10000000
      C          -1.23000000    2.13000000    1.70000000
      C          -1.23000000    2.13000000    5.10000000
      C          -1.23000000    3.55100000    1.70000000
      C           0.00000000    2.84100000    5.10000000
      C           1.23000000    2.13000000    1.70000000
      C           1.23000000    2.13000000    5.10000000
      C           1.23000000    3.55100000    1.70000000
      C           2.46000000    2.84100000    5.10000000
      C           0.00000000    0.00000000    8.50000000
      C           0.00000000    0.00000000   11.90000000
      C           0.00000000    1.42000000    8.50000000
      C           1.23000000    0.71000000   11.90000000
      C           2.46000000    0.00000000    8.50000000
      C           2.46000000    0.00000000   11.90000000
      C           2.46000000    1.42000000    8.50000000
      C           3.69000000    0.71000000   11.90000000
      C          -1.23000000    2.13000000    8.50000000
      C          -1.23000000    2.13000000   11.90000000
      C          -1.23000000    3.55100000    8.50000000
      C           0.00000000    2.84100000   11.90000000
      C           1.23000000    2.13000000    8.50000000
      C           1.23000000    2.13000000   11.90000000
      C           1.23000000    3.55100000    8.50000000
      C           2.46000000    2.84100000   11.90000000
      C          -2.46000000    4.26100000    1.70000000
      C          -2.46000000    4.26100000    5.10000000
      C          -2.46000000    5.68100000    1.70000000
      C          -1.23000000    4.97100000    5.10000000
      C           0.00000000    4.26100000    1.70000000
      C           0.00000000    4.26100000    5.10000000
      C           0.00000000    5.68100000    1.70000000
      C           1.23000000    4.97100000    5.10000000
      C          -3.69000000    6.39100000    1.70000000
      C          -3.69000000    6.39100000    5.10000000
      C          -3.69000000    7.81200000    1.70000000
      C          -2.46000000    7.10200000    5.10000000
      C          -1.23000000    6.39100000    1.70000000
      C          -1.23000000    6.39100000    5.10000000
      C          -1.23000000    7.81200000    1.70000000
      C           0.00000000    7.10200000    5.10000000
      C          -2.46000000    4.26100000    8.50000000
      C          -2.46000000    4.26100000   11.90000000
      C          -2.46000000    5.68100000    8.50000000
      C          -1.23000000    4.97100000   11.90000000
      C           0.00000000    4.26100000    8.50000000
      C           0.00000000    4.26100000   11.90000000
      C           0.00000000    5.68100000    8.50000000
      C           1.23000000    4.97100000   11.90000000
      C          -3.69000000    6.39100000    8.50000000
      C          -3.69000000    6.39100000   11.90000000
      C          -3.69000000    7.81200000    8.50000000
      C          -2.46000000    7.10200000   11.90000000
      C          -1.23000000    6.39100000    8.50000000
      C          -1.23000000    6.39100000   11.90000000
      C          -1.23000000    7.81200000    8.50000000
      C           0.00000000    7.10200000   11.90000000
      C          -4.92000000    8.52200000    1.70000000
      C          -4.92000000    8.52200000    5.10000000
      C          -4.92000000    9.94200000    1.70000000
      C          -3.69000000    9.23200000    5.10000000
      C          -2.46000000    8.52200000    1.70000000
      C          -2.46000000    8.52200000    5.10000000
      C          -2.46000000    9.94200000    1.70000000
      C          -1.23000000    9.23200000    5.10000000
      C          -6.15000000   10.65200000    1.70000000
      C          -6.15000000   10.65200000    5.10000000
      C          -6.15000000   12.07300000    1.70000000
      C          -4.92000000   11.36300000    5.10000000
      C          -3.69000000   10.65200000    1.70000000
      C          -3.69000000   10.65200000    5.10000000
      C          -3.69000000   12.07300000    1.70000000
      C          -2.46000000   11.36300000    5.10000000
      C          -4.92000000    8.52200000    8.50000000
      C          -4.92000000    8.52200000   11.90000000
      C          -4.92000000    9.94200000    8.50000000
      C          -3.69000000    9.23200000   11.90000000
      C          -2.46000000    8.52200000    8.50000000
      C          -2.46000000    8.52200000   11.90000000
      C          -2.46000000    9.94200000    8.50000000
      C          -1.23000000    9.23200000   11.90000000
      C          -6.15000000   10.65200000    8.50000000
      C          -6.15000000   10.65200000   11.90000000
      C          -6.15000000   12.07300000    8.50000000
      C          -4.92000000   11.36300000   11.90000000
      C          -3.69000000   10.65200000    8.50000000
      C          -3.69000000   10.65200000   11.90000000
      C          -3.69000000   12.07300000    8.50000000
      C          -2.46000000   11.36300000   11.90000000
      C          -7.38000000   12.78300000    1.70000000
      C          -7.38000000   12.78300000    5.10000000
      C          -7.38000000   14.20300000    1.70000000
      C          -6.15000000   13.49300000    5.10000000
      C          -4.92000000   12.78300000    1.70000000
      C          -4.92000000   12.78300000    5.10000000
      C          -4.92000000   14.20300000    1.70000000
      C          -3.69000000   13.49300000    5.10000000
      C          -8.61000000   14.91300000    1.70000000
      C          -8.61000000   14.91300000    5.10000000
      C          -8.61000000   16.33400000    1.70000000
      C          -7.38000000   15.62400000    5.10000000
      C          -6.15000000   14.91300000    1.70000000
      C          -6.15000000   14.91300000    5.10000000
      C          -6.15000000   16.33400000    1.70000000
      C          -4.92000000   15.62400000    5.10000000
      C          -7.38000000   12.78300000    8.50000000
      C          -7.38000000   12.78300000   11.90000000
      C          -7.38000000   14.20300000    8.50000000
      C          -6.15000000   13.49300000   11.90000000
      C          -4.92000000   12.78300000    8.50000000
      C          -4.92000000   12.78300000   11.90000000
      C          -4.92000000   14.20300000    8.50000000
      C          -3.69000000   13.49300000   11.90000000
      C          -8.61000000   14.91300000    8.50000000
      C          -8.61000000   14.91300000   11.90000000
      C          -8.61000000   16.33400000    8.50000000
      C          -7.38000000   15.62400000   11.90000000
      C          -6.15000000   14.91300000    8.50000000
      C          -6.15000000   14.91300000   11.90000000
      C          -6.15000000   16.33400000    8.50000000
      C          -4.92000000   15.62400000   11.90000000
      C          -9.84000000   17.04300000    1.70000000
      C          -9.84000000   17.04300000    5.10000000
      C          -9.84000000   18.46300000    1.70000000
      C          -8.61000000   17.75300000    5.10000000
      C          -7.38000000   17.04300000    1.70000000
      C          -7.38000000   17.04300000    5.10000000
      C          -7.38000000   18.46300000    1.70000000
      C          -6.15000000   17.75300000    5.10000000
      C         -11.07000000   19.17300000    1.70000000
      C         -11.07000000   19.17300000    5.10000000
      C         -11.07000000   20.59400000    1.70000000
      C          -9.84000000   19.88400000    5.10000000
      C          -8.61000000   19.17300000    1.70000000
      C          -8.61000000   19.17300000    5.10000000
      C          -8.61000000   20.59400000    1.70000000
      C          -7.38000000   19.88400000    5.10000000
      C          -9.84000000   17.04300000    8.50000000
      C          -9.84000000   17.04300000   11.90000000
      C          -9.84000000   18.46300000    8.50000000
      C          -8.61000000   17.75300000   11.90000000
      C          -7.38000000   17.04300000    8.50000000
      C          -7.38000000   17.04300000   11.90000000
      C          -7.38000000   18.46300000    8.50000000
      C          -6.15000000   17.75300000   11.90000000
      C         -11.07000000   19.17300000    8.50000000
      C         -11.07000000   19.17300000   11.90000000
      C         -11.07000000   20.59400000    8.50000000
      C          -9.84000000   19.88400000   11.90000000
      C          -8.61000000   19.17300000    8.50000000
      C          -8.61000000   19.17300000   11.90000000
      C          -8.61000000   20.59400000    8.50000000
      C          -7.38000000   19.88400000   11.90000000
      C           4.92000000    0.00000000    1.70000000
      C           4.92000000    0.00000000    5.10000000
      C           4.92000000    1.42000000    1.70000000
      C           6.15000000    0.71000000    5.10000000
      C           7.38000000    0.00000000    1.70000000
      C           7.38000000    0.00000000    5.10000000
      C           7.38000000    1.42000000    1.70000000
      C           8.61000000    0.71000000    5.10000000
      C           3.69000000    2.13000000    1.70000000
      C           3.69000000    2.13000000    5.10000000
      C           3.69000000    3.55100000    1.70000000
      C           4.92000000    2.84100000    5.10000000
      C           6.15000000    2.13000000    1.70000000
      C           6.15000000    2.13000000    5.10000000
      C           6.15000000    3.55100000    1.70000000
      C           7.38000000    2.84100000    5.10000000
      C           4.92000000    0.00000000    8.50000000
      C           4.92000000    0.00000000   11.90000000
      C           4.92000000    1.42000000    8.50000000
      C           6.15000000    0.71000000   11.90000000
      C           7.38000000    0.00000000    8.50000000
      C           7.38000000    0.00000000   11.90000000
      C           7.38000000    1.42000000    8.50000000
      C           8.61000000    0.71000000   11.90000000
      C           3.69000000    2.13000000    8.50000000
      C           3.69000000    2.13000000   11.90000000
      C           3.69000000    3.55100000    8.50000000
      C           4.92000000    2.84100000   11.90000000
      C           6.15000000    2.13000000    8.50000000
      C           6.15000000    2.13000000   11.90000000
      C           6.15000000    3.55100000    8.50000000
      C           7.38000000    2.84100000   11.90000000
      C           2.46000000    4.26100000    1.70000000
      C           2.46000000    4.26100000    5.10000000
      C           2.46000000    5.68100000    1.70000000
      C           3.69000000    4.97100000    5.10000000
      C           4.92000000    4.26100000    1.70000000
      C           4.92000000    4.26100000    5.10000000
      C           4.92000000    5.68100000    1.70000000
      C           6.15000000    4.97100000    5.10000000
      C           1.23000000    6.39100000    1.70000000
      C           1.23000000    6.39100000    5.10000000
      C           1.23000000    7.81200000    1.70000000
      C           2.46000000    7.10200000    5.10000000
      C           3.69000000    6.39100000    1.70000000
      C           3.69000000    6.39100000    5.10000000
      C           3.69000000    7.81200000    1.70000000
      C           4.92000000    7.10200000    5.10000000
      C           2.46000000    4.26100000    8.50000000
      C           2.46000000    4.26100000   11.90000000
      C           2.46000000    5.68100000    8.50000000
      C           3.69000000    4.97100000   11.90000000
      C           4.92000000    4.26100000    8.50000000
      C           4.92000000    4.26100000   11.90000000
      C           4.92000000    5.68100000    8.50000000
      C           6.15000000    4.97100000   11.90000000
      C           1.23000000    6.39100000    8.50000000
      C           1.23000000    6.39100000   11.90000000
      C           1.23000000    7.81200000    8.50000000
      C           2.46000000    7.10200000   11.90000000
      C           3.69000000    6.39100000    8.50000000
      C           3.69000000    6.39100000   11.90000000
      C           3.69000000    7.81200000    8.50000000
      C           4.92000000    7.10200000   11.90000000
      C           0.00000000    8.52200000    1.70000000
      C           0.00000000    8.52200000    5.10000000
      C           0.00000000    9.94200000    1.70000000
      C           1.23000000    9.23200000    5.10000000
      C           2.46000000    8.52200000    1.70000000
      C           2.46000000    8.52200000    5.10000000
      C           2.46000000    9.94200000    1.70000000
      C           3.69000000    9.23200000    5.10000000
      C          -1.23000000   10.65200000    1.70000000
      C          -1.23000000   10.65200000    5.10000000
      C          -1.23000000   12.07300000    1.70000000
      C           0.00000000   11.36300000    5.10000000
      C           1.23000000   10.65200000    1.70000000
      C           1.23000000   10.65200000    5.10000000
      C           1.23000000   12.07300000    1.70000000
      C           2.46000000   11.36300000    5.10000000
      C           0.00000000    8.52200000    8.50000000
      C           0.00000000    8.52200000   11.90000000
      C           0.00000000    9.94200000    8.50000000
      C           1.23000000    9.23200000   11.90000000
      C           2.46000000    8.52200000    8.50000000
      C           2.46000000    8.52200000   11.90000000
      C           2.46000000    9.94200000    8.50000000
      C           3.69000000    9.23200000   11.90000000
      C          -1.23000000   10.65200000    8.50000000
      C          -1.23000000   10.65200000   11.90000000
      C          -1.23000000   12.07300000    8.50000000
      C           0.00000000   11.36300000   11.90000000
      C           1.23000000   10.65200000    8.50000000
      C           1.23000000   10.65200000   11.90000000
      C           1.23000000   12.07300000    8.50000000
      C           2.46000000   11.36300000   11.90000000
      C          -2.46000000   12.78300000    1.70000000
      C          -2.46000000   12.78300000    5.10000000
      C          -2.46000000   14.20300000    1.70000000
      C          -1.23000000   13.49300000    5.10000000
      C           0.00000000   12.78300000    1.70000000
      C           0.00000000   12.78300000    5.10000000
      C           0.00000000   14.20300000    1.70000000
      C           1.23000000   13.49300000    5.10000000
      C          -3.69000000   14.91300000    1.70000000
      C          -3.69000000   14.91300000    5.10000000
      C          -3.69000000   16.33400000    1.70000000
      C          -2.46000000   15.62400000    5.10000000
      C          -1.23000000   14.91300000    1.70000000
      C          -1.23000000   14.91300000    5.10000000
      C          -1.23000000   16.33400000    1.70000000
      C           0.00000000   15.62400000    5.10000000
      C          -2.46000000   12.78300000    8.50000000
      C          -2.46000000   12.78300000   11.90000000
      C          -2.46000000   14.20300000    8.50000000
      C          -1.23000000   13.49300000   11.90000000
      C           0.00000000   12.78300000    8.50000000
      C           0.00000000   12.78300000   11.90000000
      C           0.00000000   14.20300000    8.50000000
      C           1.23000000   13.49300000   11.90000000
      C          -3.69000000   14.91300000    8.50000000
      C          -3.69000000   14.91300000   11.90000000
      C          -3.69000000   16.33400000    8.50000000
      C          -2.46000000   15.62400000   11.90000000
      C          -1.23000000   14.91300000    8.50000000
      C          -1.23000000   14.91300000   11.90000000
      C          -1.23000000   16.33400000    8.50000000
      C           0.00000000   15.62400000   11.90000000
      C          -4.92000000   17.04300000    1.70000000
      C          -4.92000000   17.04300000    5.10000000
      C          -4.92000000   18.46300000    1.70000000
      C          -3.69000000   17.75300000    5.10000000
      C          -2.46000000   17.04300000    1.70000000
      C          -2.46000000   17.04300000    5.10000000
      C          -2.46000000   18.46300000    1.70000000
      C          -1.23000000   17.75300000    5.10000000
      C          -6.15000000   19.17300000    1.70000000
      C          -6.15000000   19.17300000    5.10000000
      C          -6.15000000   20.59400000    1.70000000
      C          -4.92000000   19.88400000    5.10000000
      C          -3.69000000   19.17300000    1.70000000
      C          -3.69000000   19.17300000    5.10000000
      C          -3.69000000   20.59400000    1.70000000
      C          -2.46000000   19.88400000    5.10000000
      C          -4.92000000   17.04300000    8.50000000
      C          -4.92000000   17.04300000   11.90000000
      C          -4.92000000   18.46300000    8.50000000
      C          -3.69000000   17.75300000   11.90000000
      C          -2.46000000   17.04300000    8.50000000
      C          -2.46000000   17.04300000   11.90000000
      C          -2.46000000   18.46300000    8.50000000
      C          -1.23000000   17.75300000   11.90000000
      C          -6.15000000   19.17300000    8.50000000
      C          -6.15000000   19.17300000   11.90000000
      C          -6.15000000   20.59400000    8.50000000
      C          -4.92000000   19.88400000   11.90000000
      C          -3.69000000   19.17300000    8.50000000
      C          -3.69000000   19.17300000   11.90000000
      C          -3.69000000   20.59400000    8.50000000
      C          -2.46000000   19.88400000   11.90000000
      C           9.84000000    0.00000000    1.70000000
      C           9.84000000    0.00000000    5.10000000
      C           9.84000000    1.42000000    1.70000000
      C          11.07000000    0.71000000    5.10000000
      C          12.30000000    0.00000000    1.70000000
      C          12.30000000    0.00000000    5.10000000
      C          12.30000000    1.42000000    1.70000000
      C          13.53000000    0.71000000    5.10000000
      C           8.61000000    2.13000000    1.70000000
      C           8.61000000    2.13000000    5.10000000
      C           8.61000000    3.55100000    1.70000000
      C           9.84000000    2.84100000    5.10000000
      C          11.07000000    2.13000000    1.70000000
      C          11.07000000    2.13000000    5.10000000
      C          11.07000000    3.55100000    1.70000000
      C          12.30000000    2.84100000    5.10000000
      C           9.84000000    0.00000000    8.50000000
      C           9.84000000    0.00000000   11.90000000
      C           9.84000000    1.42000000    8.50000000
      C          11.07000000    0.71000000   11.90000000
      C          12.30000000    0.00000000    8.50000000
      C          12.30000000    0.00000000   11.90000000
      C          12.30000000    1.42000000    8.50000000
      C          13.53000000    0.71000000   11.90000000
      C           8.61000000    2.13000000    8.50000000
      C           8.61000000    2.13000000   11.90000000
      C           8.61000000    3.55100000    8.50000000
      C           9.84000000    2.84100000   11.90000000
      C          11.07000000    2.13000000    8.50000000
      C          11.07000000    2.13000000   11.90000000
      C          11.07000000    3.55100000    8.50000000
      C          12.30000000    2.84100000   11.90000000
      C           7.38000000    4.26100000    1.70000000
      C           7.38000000    4.26100000    5.10000000
      C           7.38000000    5.68100000    1.70000000
      C           8.61000000    4.97100000    5.10000000
      C           9.84000000    4.26100000    1.70000000
      C           9.84000000    4.26100000    5.10000000
      C           9.84000000    5.68100000    1.70000000
      C          11.07000000    4.97100000    5.10000000
      C           6.15000000    6.39100000    1.70000000
      C           6.15000000    6.39100000    5.10000000
      C           6.15000000    7.81200000    1.70000000
      C           7.38000000    7.10200000    5.10000000
      C           8.61000000    6.39100000    1.70000000
      C           8.61000000    6.39100000    5.10000000
      C           8.61000000    7.81200000    1.70000000
      C           9.84000000    7.10200000    5.10000000
      C           7.38000000    4.26100000    8.50000000
      C           7.38000000    4.26100000   11.90000000
      C           7.38000000    5.68100000    8.50000000
      C           8.61000000    4.97100000   11.90000000
      C           9.84000000    4.26100000    8.50000000
      C           9.84000000    4.26100000   11.90000000
      C           9.84000000    5.68100000    8.50000000
      C          11.07000000    4.97100000   11.90000000
      C           6.15000000    6.39100000    8.50000000
      C           6.15000000    6.39100000   11.90000000
      C           6.15000000    7.81200000    8.50000000
      C           7.38000000    7.10200000   11.90000000
      C           8.61000000    6.39100000    8.50000000
      C           8.61000000    6.39100000   11.90000000
      C           8.61000000    7.81200000    8.50000000
      C           9.84000000    7.10200000   11.90000000
      C           4.92000000    8.52200000    1.70000000
      C           4.92000000    8.52200000    5.10000000
      C           4.92000000    9.94200000    1.70000000
      C           6.15000000    9.23200000    5.10000000
      C           7.38000000    8.52200000    1.70000000
      C           7.38000000    8.52200000    5.10000000
      C           7.38000000    9.94200000    1.70000000
      C           8.61000000    9.23200000    5.10000000
      C           3.69000000   10.65200000    1.70000000
      C           3.69000000   10.65200000    5.10000000
      C           3.69000000   12.07300000    1.70000000
      C           4.92000000   11.36300000    5.10000000
      C           6.15000000   10.65200000    1.70000000
      C           6.15000000   10.65200000    5.10000000
      C           6.15000000   12.07300000    1.70000000
      C           7.38000000   11.36300000    5.10000000
      C           4.92000000    8.52200000    8.50000000
      C           4.92000000    8.52200000   11.90000000
      C           4.92000000    9.94200000    8.50000000
      C           6.15000000    9.23200000   11.90000000
      C           7.38000000    8.52200000    8.50000000
      C           7.38000000    8.52200000   11.90000000
      C           7.38000000    9.94200000    8.50000000
      C           8.61000000    9.23200000   11.90000000
      C           3.69000000   10.65200000    8.50000000
      C           3.69000000   10.65200000   11.90000000
      C           3.69000000   12.07300000    8.50000000
      C           4.92000000   11.36300000   11.90000000
      C           6.15000000   10.65200000    8.50000000
      C           6.15000000   10.65200000   11.90000000
      C           6.15000000   12.07300000    8.50000000
      C           7.38000000   11.36300000   11.90000000
      C           2.46000000   12.78300000    1.70000000
      C           2.46000000   12.78300000    5.10000000
      C           2.46000000   14.20300000    1.70000000
      C           3.69000000   13.49300000    5.10000000
      C           4.92000000   12.78300000    1.70000000
      C           4.92000000   12.78300000    5.10000000
      C           4.92000000   14.20300000    1.70000000
      C           6.15000000   13.49300000    5.10000000
      C           1.23000000   14.91300000    1.70000000
      C           1.23000000   14.91300000    5.10000000
      C           1.23000000   16.33400000    1.70000000
      C           2.46000000   15.62400000    5.10000000
      C           3.69000000   14.91300000    1.70000000
      C           3.69000000   14.91300000    5.10000000
      C           3.69000000   16.33400000    1.70000000
      C           4.92000000   15.62400000    5.10000000
      C           2.46000000   12.78300000    8.50000000
      C           2.46000000   12.78300000   11.90000000
      C           2.46000000   14.20300000    8.50000000
      C           3.69000000   13.49300000   11.90000000
      C           4.92000000   12.78300000    8.50000000
      C           4.92000000   12.78300000   11.90000000
      C           4.92000000   14.20300000    8.50000000
      C           6.15000000   13.49300000   11.90000000
      C           1.23000000   14.91300000    8.50000000
      C           1.23000000   14.91300000   11.90000000
      C           1.23000000   16.33400000    8.50000000
      C           2.46000000   15.62400000   11.90000000
      C           3.69000000   14.91300000    8.50000000
      C           3.69000000   14.91300000   11.90000000
      C           3.69000000   16.33400000    8.50000000
      C           4.92000000   15.62400000   11.90000000
      C           0.00000000   17.04300000    1.70000000
      C           0.00000000   17.04300000    5.10000000
      C           0.00000000   18.46300000    1.70000000
      C           1.23000000   17.75300000    5.10000000
      C           2.46000000   17.04300000    1.70000000
      C           2.46000000   17.04300000    5.10000000
      C           2.46000000   18.46300000    1.70000000
      C           3.69000000   17.75300000    5.10000000
      C          -1.23000000   19.17300000    1.70000000
      C          -1.23000000   19.17300000    5.10000000
      C          -1.23000000   20.59400000    1.70000000
      C           0.00000000   19.88400000    5.10000000
      C           1.23000000   19.17300000    1.70000000
      C           1.23000000   19.17300000    5.10000000
      C           1.23000000   20.59400000    1.70000000
      C           2.46000000   19.88400000    5.10000000
      C           0.00000000   17.04300000    8.50000000
      C           0.00000000   17.04300000   11.90000000
      C           0.00000000   18.46300000    8.50000000
      C           1.23000000   17.75300000   11.90000000
      C           2.46000000   17.04300000    8.50000000
      C           2.46000000   17.04300000   11.90000000
      C           2.46000000   18.46300000    8.50000000
      C           3.69000000   17.75300000   11.90000000
      C          -1.23000000   19.17300000    8.50000000
      C          -1.23000000   19.17300000   11.90000000
      C          -1.23000000   20.59400000    8.50000000
      C           0.00000000   19.88400000   11.90000000
      C           1.23000000   19.17300000    8.50000000
      C           1.23000000   19.17300000   11.90000000
      C           1.23000000   20.59400000    8.50000000
      C           2.46000000   19.88400000   11.90000000
      C          14.76000000    0.00000000    1.70000000
      C          14.76000000    0.00000000    5.10000000
      C          14.76000000    1.42000000    1.70000000
      C          15.99000000    0.71000000    5.10000000
      C          17.22000000    0.00000000    1.70000000
      C          17.22000000    0.00000000    5.10000000
      C          17.22000000    1.42000000    1.70000000
      C          18.45000000    0.71000000    5.10000000
      C          13.53000000    2.13000000    1.70000000
      C          13.53000000    2.13000000    5.10000000
      C          13.53000000    3.55100000    1.70000000
      C          14.76000000    2.84100000    5.10000000
      C          15.99000000    2.13000000    1.70000000
      C          15.99000000    2.13000000    5.10000000
      C          15.99000000    3.55100000    1.70000000
      C          17.22000000    2.84100000    5.10000000
      C          14.76000000    0.00000000    8.50000000
      C          14.76000000    0.00000000   11.90000000
      C          14.76000000    1.42000000    8.50000000
      C          15.99000000    0.71000000   11.90000000
      C          17.22000000    0.00000000    8.50000000
      C          17.22000000    0.00000000   11.90000000
      C          17.22000000    1.42000000    8.50000000
      C          18.45000000    0.71000000   11.90000000
      C          13.53000000    2.13000000    8.50000000
      C          13.53000000    2.13000000   11.90000000
      C          13.53000000    3.55100000    8.50000000
      C          14.76000000    2.84100000   11.90000000
      C          15.99000000    2.13000000    8.50000000